*Heading
** Job name: rve Model name: Model-1
** Generated by: Abaqus/CAE 2024
*Preprint, echo=NO, model=NO, history=NO, contact=NO
**
** PARTS
**
*Part, name=bicrystal
*Node
      1,           0.,           0.,          10.
      2,          10.,           0.,          10.
      3,          10.,           0.,          20.
      4,           0.,           0.,          20.
      5,          10.,          10.,          10.
      6,          10.,          10.,          20.
      7,           0.,          10.,          20.
      8,           0.,          10.,          10.
      9,           0.,           0.,           0.
     10,          10.,           0.,           0.
     11,           0.,          10.,           0.
     12,          10.,          10.,           0.
     13,           1.,           0.,          10.
     14,           2.,           0.,          10.
     15,           3.,           0.,          10.
     16,           4.,           0.,          10.
     17,           5.,           0.,          10.
     18,           6.,           0.,          10.
     19,           7.,           0.,          10.
     20,           8.,           0.,          10.
     21,           9.,           0.,          10.
     22,          10.,           0.,          11.
     23,          10.,           0.,          12.
     24,          10.,           0.,          13.
     25,          10.,           0.,          14.
     26,          10.,           0.,          15.
     27,          10.,           0.,          16.
     28,          10.,           0.,          17.
     29,          10.,           0.,          18.
     30,          10.,           0.,          19.
     31,           9.,           0.,          20.
     32,           8.,           0.,          20.
     33,           7.,           0.,          20.
     34,           6.,           0.,          20.
     35,           5.,           0.,          20.
     36,           4.,           0.,          20.
     37,           3.,           0.,          20.
     38,           2.,           0.,          20.
     39,           1.,           0.,          20.
     40,           0.,           0.,          19.
     41,           0.,           0.,          18.
     42,           0.,           0.,          17.
     43,           0.,           0.,          16.
     44,           0.,           0.,          15.
     45,           0.,           0.,          14.
     46,           0.,           0.,          13.
     47,           0.,           0.,          12.
     48,           0.,           0.,          11.
     49,           9.,          10.,          10.
     50,           8.,          10.,          10.
     51,           7.,          10.,          10.
     52,           6.,          10.,          10.
     53,           5.,          10.,          10.
     54,           4.,          10.,          10.
     55,           3.,          10.,          10.
     56,           2.,          10.,          10.
     57,           1.,          10.,          10.
     58,          10.,          10.,          19.
     59,          10.,          10.,          18.
     60,          10.,          10.,          17.
     61,          10.,          10.,          16.
     62,          10.,          10.,          15.
     63,          10.,          10.,          14.
     64,          10.,          10.,          13.
     65,          10.,          10.,          12.
     66,          10.,          10.,          11.
     67,           1.,          10.,          20.
     68,           2.,          10.,          20.
     69,           3.,          10.,          20.
     70,           4.,          10.,          20.
     71,           5.,          10.,          20.
     72,           6.,          10.,          20.
     73,           7.,          10.,          20.
     74,           8.,          10.,          20.
     75,           9.,          10.,          20.
     76,           0.,          10.,          11.
     77,           0.,          10.,          12.
     78,           0.,          10.,          13.
     79,           0.,          10.,          14.
     80,           0.,          10.,          15.
     81,           0.,          10.,          16.
     82,           0.,          10.,          17.
     83,           0.,          10.,          18.
     84,           0.,          10.,          19.
     85,           0.,           1.,          20.
     86,           0.,           2.,          20.
     87,           0.,           3.,          20.
     88,           0.,           4.,          20.
     89,           0.,           5.,          20.
     90,           0.,           6.,          20.
     91,           0.,           7.,          20.
     92,           0.,           8.,          20.
     93,           0.,           9.,          20.
     94,           0.,           9.,          10.
     95,           0.,           8.,          10.
     96,           0.,           7.,          10.
     97,           0.,           6.,          10.
     98,           0.,           5.,          10.
     99,           0.,           4.,          10.
    100,           0.,           3.,          10.
    101,           0.,           2.,          10.
    102,           0.,           1.,          10.
    103,          10.,           9.,          20.
    104,          10.,           8.,          20.
    105,          10.,           7.,          20.
    106,          10.,           6.,          20.
    107,          10.,           5.,          20.
    108,          10.,           4.,          20.
    109,          10.,           3.,          20.
    110,          10.,           2.,          20.
    111,          10.,           1.,          20.
    112,          10.,           1.,          10.
    113,          10.,           2.,          10.
    114,          10.,           3.,          10.
    115,          10.,           4.,          10.
    116,          10.,           5.,          10.
    117,          10.,           6.,          10.
    118,          10.,           7.,          10.
    119,          10.,           8.,          10.
    120,          10.,           9.,          10.
    121,           0.,           0.,           9.
    122,           0.,           0.,           8.
    123,           0.,           0.,           7.
    124,           0.,           0.,           6.
    125,           0.,           0.,           5.
    126,           0.,           0.,           4.
    127,           0.,           0.,           3.
    128,           0.,           0.,           2.
    129,           0.,           0.,           1.
    130,           1.,           0.,           0.
    131,           2.,           0.,           0.
    132,           3.,           0.,           0.
    133,           4.,           0.,           0.
    134,           5.,           0.,           0.
    135,           6.,           0.,           0.
    136,           7.,           0.,           0.
    137,           8.,           0.,           0.
    138,           9.,           0.,           0.
    139,          10.,           0.,           1.
    140,          10.,           0.,           2.
    141,          10.,           0.,           3.
    142,          10.,           0.,           4.
    143,          10.,           0.,           5.
    144,          10.,           0.,           6.
    145,          10.,           0.,           7.
    146,          10.,           0.,           8.
    147,          10.,           0.,           9.
    148,           0.,          10.,           1.
    149,           0.,          10.,           2.
    150,           0.,          10.,           3.
    151,           0.,          10.,           4.
    152,           0.,          10.,           5.
    153,           0.,          10.,           6.
    154,           0.,          10.,           7.
    155,           0.,          10.,           8.
    156,           0.,          10.,           9.
    157,           9.,          10.,           0.
    158,           8.,          10.,           0.
    159,           7.,          10.,           0.
    160,           6.,          10.,           0.
    161,           5.,          10.,           0.
    162,           4.,          10.,           0.
    163,           3.,          10.,           0.
    164,           2.,          10.,           0.
    165,           1.,          10.,           0.
    166,          10.,          10.,           9.
    167,          10.,          10.,           8.
    168,          10.,          10.,           7.
    169,          10.,          10.,           6.
    170,          10.,          10.,           5.
    171,          10.,          10.,           4.
    172,          10.,          10.,           3.
    173,          10.,          10.,           2.
    174,          10.,          10.,           1.
    175,          10.,           1.,           0.
    176,          10.,           2.,           0.
    177,          10.,           3.,           0.
    178,          10.,           4.,           0.
    179,          10.,           5.,           0.
    180,          10.,           6.,           0.
    181,          10.,           7.,           0.
    182,          10.,           8.,           0.
    183,          10.,           9.,           0.
    184,           0.,           9.,           0.
    185,           0.,           8.,           0.
    186,           0.,           7.,           0.
    187,           0.,           6.,           0.
    188,           0.,           5.,           0.
    189,           0.,           4.,           0.
    190,           0.,           3.,           0.
    191,           0.,           2.,           0.
    192,           0.,           1.,           0.
    193,           1.,           0.,          11.
    194,           2.,           0.,          11.
    195,           3.,           0.,          11.
    196,           4.,           0.,          11.
    197,           5.,           0.,          11.
    198,           6.,           0.,          11.
    199,           7.,           0.,          11.
    200,           8.,           0.,          11.
    201,           9.,           0.,          11.
    202,           1.,           0.,          12.
    203,           2.,           0.,          12.
    204,           3.,           0.,          12.
    205,           4.,           0.,          12.
    206,           5.,           0.,          12.
    207,           6.,           0.,          12.
    208,           7.,           0.,          12.
    209,           8.,           0.,          12.
    210,           9.,           0.,          12.
    211,           1.,           0.,          13.
    212,           2.,           0.,          13.
    213,           3.,           0.,          13.
    214,           4.,           0.,          13.
    215,           5.,           0.,          13.
    216,           6.,           0.,          13.
    217,           7.,           0.,          13.
    218,           8.,           0.,          13.
    219,           9.,           0.,          13.
    220,           1.,           0.,          14.
    221,           2.,           0.,          14.
    222,           3.,           0.,          14.
    223,           4.,           0.,          14.
    224,           5.,           0.,          14.
    225,           6.,           0.,          14.
    226,           7.,           0.,          14.
    227,           8.,           0.,          14.
    228,           9.,           0.,          14.
    229,           1.,           0.,          15.
    230,           2.,           0.,          15.
    231,           3.,           0.,          15.
    232,           4.,           0.,          15.
    233,           5.,           0.,          15.
    234,           6.,           0.,          15.
    235,           7.,           0.,          15.
    236,           8.,           0.,          15.
    237,           9.,           0.,          15.
    238,           1.,           0.,          16.
    239,           2.,           0.,          16.
    240,           3.,           0.,          16.
    241,           4.,           0.,          16.
    242,           5.,           0.,          16.
    243,           6.,           0.,          16.
    244,           7.,           0.,          16.
    245,           8.,           0.,          16.
    246,           9.,           0.,          16.
    247,           1.,           0.,          17.
    248,           2.,           0.,          17.
    249,           3.,           0.,          17.
    250,           4.,           0.,          17.
    251,           5.,           0.,          17.
    252,           6.,           0.,          17.
    253,           7.,           0.,          17.
    254,           8.,           0.,          17.
    255,           9.,           0.,          17.
    256,           1.,           0.,          18.
    257,           2.,           0.,          18.
    258,           3.,           0.,          18.
    259,           4.,           0.,          18.
    260,           5.,           0.,          18.
    261,           6.,           0.,          18.
    262,           7.,           0.,          18.
    263,           8.,           0.,          18.
    264,           9.,           0.,          18.
    265,           1.,           0.,          19.
    266,           2.,           0.,          19.
    267,           3.,           0.,          19.
    268,           4.,           0.,          19.
    269,           5.,           0.,          19.
    270,           6.,           0.,          19.
    271,           7.,           0.,          19.
    272,           8.,           0.,          19.
    273,           9.,           0.,          19.
    274,           1.,          10.,          11.
    275,           2.,          10.,          11.
    276,           3.,          10.,          11.
    277,           4.,          10.,          11.
    278,           5.,          10.,          11.
    279,           6.,          10.,          11.
    280,           7.,          10.,          11.
    281,           8.,          10.,          11.
    282,           9.,          10.,          11.
    283,           1.,          10.,          12.
    284,           2.,          10.,          12.
    285,           3.,          10.,          12.
    286,           4.,          10.,          12.
    287,           5.,          10.,          12.
    288,           6.,          10.,          12.
    289,           7.,          10.,          12.
    290,           8.,          10.,          12.
    291,           9.,          10.,          12.
    292,           1.,          10.,          13.
    293,           2.,          10.,          13.
    294,           3.,          10.,          13.
    295,           4.,          10.,          13.
    296,           5.,          10.,          13.
    297,           6.,          10.,          13.
    298,           7.,          10.,          13.
    299,           8.,          10.,          13.
    300,           9.,          10.,          13.
    301,           1.,          10.,          14.
    302,           2.,          10.,          14.
    303,           3.,          10.,          14.
    304,           4.,          10.,          14.
    305,           5.,          10.,          14.
    306,           6.,          10.,          14.
    307,           7.,          10.,          14.
    308,           8.,          10.,          14.
    309,           9.,          10.,          14.
    310,           1.,          10.,          15.
    311,           2.,          10.,          15.
    312,           3.,          10.,          15.
    313,           4.,          10.,          15.
    314,           5.,          10.,          15.
    315,           6.,          10.,          15.
    316,           7.,          10.,          15.
    317,           8.,          10.,          15.
    318,           9.,          10.,          15.
    319,           1.,          10.,          16.
    320,           2.,          10.,          16.
    321,           3.,          10.,          16.
    322,           4.,          10.,          16.
    323,           5.,          10.,          16.
    324,           6.,          10.,          16.
    325,           7.,          10.,          16.
    326,           8.,          10.,          16.
    327,           9.,          10.,          16.
    328,           1.,          10.,          17.
    329,           2.,          10.,          17.
    330,           3.,          10.,          17.
    331,           4.,          10.,          17.
    332,           5.,          10.,          17.
    333,           6.,          10.,          17.
    334,           7.,          10.,          17.
    335,           8.,          10.,          17.
    336,           9.,          10.,          17.
    337,           1.,          10.,          18.
    338,           2.,          10.,          18.
    339,           3.,          10.,          18.
    340,           4.,          10.,          18.
    341,           5.,          10.,          18.
    342,           6.,          10.,          18.
    343,           7.,          10.,          18.
    344,           8.,          10.,          18.
    345,           9.,          10.,          18.
    346,           1.,          10.,          19.
    347,           2.,          10.,          19.
    348,           3.,          10.,          19.
    349,           4.,          10.,          19.
    350,           5.,          10.,          19.
    351,           6.,          10.,          19.
    352,           7.,          10.,          19.
    353,           8.,          10.,          19.
    354,           9.,          10.,          19.
    355,           0.,           1.,          11.
    356,           0.,           1.,          12.
    357,           0.,           1.,          13.
    358,           0.,           1.,          14.
    359,           0.,           1.,          15.
    360,           0.,           1.,          16.
    361,           0.,           1.,          17.
    362,           0.,           1.,          18.
    363,           0.,           1.,          19.
    364,           0.,           2.,          11.
    365,           0.,           2.,          12.
    366,           0.,           2.,          13.
    367,           0.,           2.,          14.
    368,           0.,           2.,          15.
    369,           0.,           2.,          16.
    370,           0.,           2.,          17.
    371,           0.,           2.,          18.
    372,           0.,           2.,          19.
    373,           0.,           3.,          11.
    374,           0.,           3.,          12.
    375,           0.,           3.,          13.
    376,           0.,           3.,          14.
    377,           0.,           3.,          15.
    378,           0.,           3.,          16.
    379,           0.,           3.,          17.
    380,           0.,           3.,          18.
    381,           0.,           3.,          19.
    382,           0.,           4.,          11.
    383,           0.,           4.,          12.
    384,           0.,           4.,          13.
    385,           0.,           4.,          14.
    386,           0.,           4.,          15.
    387,           0.,           4.,          16.
    388,           0.,           4.,          17.
    389,           0.,           4.,          18.
    390,           0.,           4.,          19.
    391,           0.,           5.,          11.
    392,           0.,           5.,          12.
    393,           0.,           5.,          13.
    394,           0.,           5.,          14.
    395,           0.,           5.,          15.
    396,           0.,           5.,          16.
    397,           0.,           5.,          17.
    398,           0.,           5.,          18.
    399,           0.,           5.,          19.
    400,           0.,           6.,          11.
    401,           0.,           6.,          12.
    402,           0.,           6.,          13.
    403,           0.,           6.,          14.
    404,           0.,           6.,          15.
    405,           0.,           6.,          16.
    406,           0.,           6.,          17.
    407,           0.,           6.,          18.
    408,           0.,           6.,          19.
    409,           0.,           7.,          11.
    410,           0.,           7.,          12.
    411,           0.,           7.,          13.
    412,           0.,           7.,          14.
    413,           0.,           7.,          15.
    414,           0.,           7.,          16.
    415,           0.,           7.,          17.
    416,           0.,           7.,          18.
    417,           0.,           7.,          19.
    418,           0.,           8.,          11.
    419,           0.,           8.,          12.
    420,           0.,           8.,          13.
    421,           0.,           8.,          14.
    422,           0.,           8.,          15.
    423,           0.,           8.,          16.
    424,           0.,           8.,          17.
    425,           0.,           8.,          18.
    426,           0.,           8.,          19.
    427,           0.,           9.,          11.
    428,           0.,           9.,          12.
    429,           0.,           9.,          13.
    430,           0.,           9.,          14.
    431,           0.,           9.,          15.
    432,           0.,           9.,          16.
    433,           0.,           9.,          17.
    434,           0.,           9.,          18.
    435,           0.,           9.,          19.
    436,          10.,           1.,          11.
    437,          10.,           1.,          12.
    438,          10.,           1.,          13.
    439,          10.,           1.,          14.
    440,          10.,           1.,          15.
    441,          10.,           1.,          16.
    442,          10.,           1.,          17.
    443,          10.,           1.,          18.
    444,          10.,           1.,          19.
    445,          10.,           2.,          11.
    446,          10.,           2.,          12.
    447,          10.,           2.,          13.
    448,          10.,           2.,          14.
    449,          10.,           2.,          15.
    450,          10.,           2.,          16.
    451,          10.,           2.,          17.
    452,          10.,           2.,          18.
    453,          10.,           2.,          19.
    454,          10.,           3.,          11.
    455,          10.,           3.,          12.
    456,          10.,           3.,          13.
    457,          10.,           3.,          14.
    458,          10.,           3.,          15.
    459,          10.,           3.,          16.
    460,          10.,           3.,          17.
    461,          10.,           3.,          18.
    462,          10.,           3.,          19.
    463,          10.,           4.,          11.
    464,          10.,           4.,          12.
    465,          10.,           4.,          13.
    466,          10.,           4.,          14.
    467,          10.,           4.,          15.
    468,          10.,           4.,          16.
    469,          10.,           4.,          17.
    470,          10.,           4.,          18.
    471,          10.,           4.,          19.
    472,          10.,           5.,          11.
    473,          10.,           5.,          12.
    474,          10.,           5.,          13.
    475,          10.,           5.,          14.
    476,          10.,           5.,          15.
    477,          10.,           5.,          16.
    478,          10.,           5.,          17.
    479,          10.,           5.,          18.
    480,          10.,           5.,          19.
    481,          10.,           6.,          11.
    482,          10.,           6.,          12.
    483,          10.,           6.,          13.
    484,          10.,           6.,          14.
    485,          10.,           6.,          15.
    486,          10.,           6.,          16.
    487,          10.,           6.,          17.
    488,          10.,           6.,          18.
    489,          10.,           6.,          19.
    490,          10.,           7.,          11.
    491,          10.,           7.,          12.
    492,          10.,           7.,          13.
    493,          10.,           7.,          14.
    494,          10.,           7.,          15.
    495,          10.,           7.,          16.
    496,          10.,           7.,          17.
    497,          10.,           7.,          18.
    498,          10.,           7.,          19.
    499,          10.,           8.,          11.
    500,          10.,           8.,          12.
    501,          10.,           8.,          13.
    502,          10.,           8.,          14.
    503,          10.,           8.,          15.
    504,          10.,           8.,          16.
    505,          10.,           8.,          17.
    506,          10.,           8.,          18.
    507,          10.,           8.,          19.
    508,          10.,           9.,          11.
    509,          10.,           9.,          12.
    510,          10.,           9.,          13.
    511,          10.,           9.,          14.
    512,          10.,           9.,          15.
    513,          10.,           9.,          16.
    514,          10.,           9.,          17.
    515,          10.,           9.,          18.
    516,          10.,           9.,          19.
    517,           1.,           1.,          10.
    518,           2.,           1.,          10.
    519,           3.,           1.,          10.
    520,           4.,           1.,          10.
    521,           5.,           1.,          10.
    522,           6.,           1.,          10.
    523,           7.,           1.,          10.
    524,           8.,           1.,          10.
    525,           9.,           1.,          10.
    526,           1.,           2.,          10.
    527,           2.,           2.,          10.
    528,           3.,           2.,          10.
    529,           4.,           2.,          10.
    530,           5.,           2.,          10.
    531,           6.,           2.,          10.
    532,           7.,           2.,          10.
    533,           8.,           2.,          10.
    534,           9.,           2.,          10.
    535,           1.,           3.,          10.
    536,           2.,           3.,          10.
    537,           3.,           3.,          10.
    538,           4.,           3.,          10.
    539,           5.,           3.,          10.
    540,           6.,           3.,          10.
    541,           7.,           3.,          10.
    542,           8.,           3.,          10.
    543,           9.,           3.,          10.
    544,           1.,           4.,          10.
    545,           2.,           4.,          10.
    546,           3.,           4.,          10.
    547,           4.,           4.,          10.
    548,           5.,           4.,          10.
    549,           6.,           4.,          10.
    550,           7.,           4.,          10.
    551,           8.,           4.,          10.
    552,           9.,           4.,          10.
    553,           1.,           5.,          10.
    554,           2.,           5.,          10.
    555,           3.,           5.,          10.
    556,           4.,           5.,          10.
    557,           5.,           5.,          10.
    558,           6.,           5.,          10.
    559,           7.,           5.,          10.
    560,           8.,           5.,          10.
    561,           9.,           5.,          10.
    562,           1.,           6.,          10.
    563,           2.,           6.,          10.
    564,           3.,           6.,          10.
    565,           4.,           6.,          10.
    566,           5.,           6.,          10.
    567,           6.,           6.,          10.
    568,           7.,           6.,          10.
    569,           8.,           6.,          10.
    570,           9.,           6.,          10.
    571,           1.,           7.,          10.
    572,           2.,           7.,          10.
    573,           3.,           7.,          10.
    574,           4.,           7.,          10.
    575,           5.,           7.,          10.
    576,           6.,           7.,          10.
    577,           7.,           7.,          10.
    578,           8.,           7.,          10.
    579,           9.,           7.,          10.
    580,           1.,           8.,          10.
    581,           2.,           8.,          10.
    582,           3.,           8.,          10.
    583,           4.,           8.,          10.
    584,           5.,           8.,          10.
    585,           6.,           8.,          10.
    586,           7.,           8.,          10.
    587,           8.,           8.,          10.
    588,           9.,           8.,          10.
    589,           1.,           9.,          10.
    590,           2.,           9.,          10.
    591,           3.,           9.,          10.
    592,           4.,           9.,          10.
    593,           5.,           9.,          10.
    594,           6.,           9.,          10.
    595,           7.,           9.,          10.
    596,           8.,           9.,          10.
    597,           9.,           9.,          10.
    598,           1.,           1.,          20.
    599,           2.,           1.,          20.
    600,           3.,           1.,          20.
    601,           4.,           1.,          20.
    602,           5.,           1.,          20.
    603,           6.,           1.,          20.
    604,           7.,           1.,          20.
    605,           8.,           1.,          20.
    606,           9.,           1.,          20.
    607,           1.,           2.,          20.
    608,           2.,           2.,          20.
    609,           3.,           2.,          20.
    610,           4.,           2.,          20.
    611,           5.,           2.,          20.
    612,           6.,           2.,          20.
    613,           7.,           2.,          20.
    614,           8.,           2.,          20.
    615,           9.,           2.,          20.
    616,           1.,           3.,          20.
    617,           2.,           3.,          20.
    618,           3.,           3.,          20.
    619,           4.,           3.,          20.
    620,           5.,           3.,          20.
    621,           6.,           3.,          20.
    622,           7.,           3.,          20.
    623,           8.,           3.,          20.
    624,           9.,           3.,          20.
    625,           1.,           4.,          20.
    626,           2.,           4.,          20.
    627,           3.,           4.,          20.
    628,           4.,           4.,          20.
    629,           5.,           4.,          20.
    630,           6.,           4.,          20.
    631,           7.,           4.,          20.
    632,           8.,           4.,          20.
    633,           9.,           4.,          20.
    634,           1.,           5.,          20.
    635,           2.,           5.,          20.
    636,           3.,           5.,          20.
    637,           4.,           5.,          20.
    638,           5.,           5.,          20.
    639,           6.,           5.,          20.
    640,           7.,           5.,          20.
    641,           8.,           5.,          20.
    642,           9.,           5.,          20.
    643,           1.,           6.,          20.
    644,           2.,           6.,          20.
    645,           3.,           6.,          20.
    646,           4.,           6.,          20.
    647,           5.,           6.,          20.
    648,           6.,           6.,          20.
    649,           7.,           6.,          20.
    650,           8.,           6.,          20.
    651,           9.,           6.,          20.
    652,           1.,           7.,          20.
    653,           2.,           7.,          20.
    654,           3.,           7.,          20.
    655,           4.,           7.,          20.
    656,           5.,           7.,          20.
    657,           6.,           7.,          20.
    658,           7.,           7.,          20.
    659,           8.,           7.,          20.
    660,           9.,           7.,          20.
    661,           1.,           8.,          20.
    662,           2.,           8.,          20.
    663,           3.,           8.,          20.
    664,           4.,           8.,          20.
    665,           5.,           8.,          20.
    666,           6.,           8.,          20.
    667,           7.,           8.,          20.
    668,           8.,           8.,          20.
    669,           9.,           8.,          20.
    670,           1.,           9.,          20.
    671,           2.,           9.,          20.
    672,           3.,           9.,          20.
    673,           4.,           9.,          20.
    674,           5.,           9.,          20.
    675,           6.,           9.,          20.
    676,           7.,           9.,          20.
    677,           8.,           9.,          20.
    678,           9.,           9.,          20.
    679,           9.,           0.,           9.
    680,           8.,           0.,           9.
    681,           7.,           0.,           9.
    682,           6.,           0.,           9.
    683,           5.,           0.,           9.
    684,           4.,           0.,           9.
    685,           3.,           0.,           9.
    686,           2.,           0.,           9.
    687,           1.,           0.,           9.
    688,           9.,           0.,           8.
    689,           8.,           0.,           8.
    690,           7.,           0.,           8.
    691,           6.,           0.,           8.
    692,           5.,           0.,           8.
    693,           4.,           0.,           8.
    694,           3.,           0.,           8.
    695,           2.,           0.,           8.
    696,           1.,           0.,           8.
    697,           9.,           0.,           7.
    698,           8.,           0.,           7.
    699,           7.,           0.,           7.
    700,           6.,           0.,           7.
    701,           5.,           0.,           7.
    702,           4.,           0.,           7.
    703,           3.,           0.,           7.
    704,           2.,           0.,           7.
    705,           1.,           0.,           7.
    706,           9.,           0.,           6.
    707,           8.,           0.,           6.
    708,           7.,           0.,           6.
    709,           6.,           0.,           6.
    710,           5.,           0.,           6.
    711,           4.,           0.,           6.
    712,           3.,           0.,           6.
    713,           2.,           0.,           6.
    714,           1.,           0.,           6.
    715,           9.,           0.,           5.
    716,           8.,           0.,           5.
    717,           7.,           0.,           5.
    718,           6.,           0.,           5.
    719,           5.,           0.,           5.
    720,           4.,           0.,           5.
    721,           3.,           0.,           5.
    722,           2.,           0.,           5.
    723,           1.,           0.,           5.
    724,           9.,           0.,           4.
    725,           8.,           0.,           4.
    726,           7.,           0.,           4.
    727,           6.,           0.,           4.
    728,           5.,           0.,           4.
    729,           4.,           0.,           4.
    730,           3.,           0.,           4.
    731,           2.,           0.,           4.
    732,           1.,           0.,           4.
    733,           9.,           0.,           3.
    734,           8.,           0.,           3.
    735,           7.,           0.,           3.
    736,           6.,           0.,           3.
    737,           5.,           0.,           3.
    738,           4.,           0.,           3.
    739,           3.,           0.,           3.
    740,           2.,           0.,           3.
    741,           1.,           0.,           3.
    742,           9.,           0.,           2.
    743,           8.,           0.,           2.
    744,           7.,           0.,           2.
    745,           6.,           0.,           2.
    746,           5.,           0.,           2.
    747,           4.,           0.,           2.
    748,           3.,           0.,           2.
    749,           2.,           0.,           2.
    750,           1.,           0.,           2.
    751,           9.,           0.,           1.
    752,           8.,           0.,           1.
    753,           7.,           0.,           1.
    754,           6.,           0.,           1.
    755,           5.,           0.,           1.
    756,           4.,           0.,           1.
    757,           3.,           0.,           1.
    758,           2.,           0.,           1.
    759,           1.,           0.,           1.
    760,           9.,          10.,           9.
    761,           8.,          10.,           9.
    762,           7.,          10.,           9.
    763,           6.,          10.,           9.
    764,           5.,          10.,           9.
    765,           4.,          10.,           9.
    766,           3.,          10.,           9.
    767,           2.,          10.,           9.
    768,           1.,          10.,           9.
    769,           9.,          10.,           8.
    770,           8.,          10.,           8.
    771,           7.,          10.,           8.
    772,           6.,          10.,           8.
    773,           5.,          10.,           8.
    774,           4.,          10.,           8.
    775,           3.,          10.,           8.
    776,           2.,          10.,           8.
    777,           1.,          10.,           8.
    778,           9.,          10.,           7.
    779,           8.,          10.,           7.
    780,           7.,          10.,           7.
    781,           6.,          10.,           7.
    782,           5.,          10.,           7.
    783,           4.,          10.,           7.
    784,           3.,          10.,           7.
    785,           2.,          10.,           7.
    786,           1.,          10.,           7.
    787,           9.,          10.,           6.
    788,           8.,          10.,           6.
    789,           7.,          10.,           6.
    790,           6.,          10.,           6.
    791,           5.,          10.,           6.
    792,           4.,          10.,           6.
    793,           3.,          10.,           6.
    794,           2.,          10.,           6.
    795,           1.,          10.,           6.
    796,           9.,          10.,           5.
    797,           8.,          10.,           5.
    798,           7.,          10.,           5.
    799,           6.,          10.,           5.
    800,           5.,          10.,           5.
    801,           4.,          10.,           5.
    802,           3.,          10.,           5.
    803,           2.,          10.,           5.
    804,           1.,          10.,           5.
    805,           9.,          10.,           4.
    806,           8.,          10.,           4.
    807,           7.,          10.,           4.
    808,           6.,          10.,           4.
    809,           5.,          10.,           4.
    810,           4.,          10.,           4.
    811,           3.,          10.,           4.
    812,           2.,          10.,           4.
    813,           1.,          10.,           4.
    814,           9.,          10.,           3.
    815,           8.,          10.,           3.
    816,           7.,          10.,           3.
    817,           6.,          10.,           3.
    818,           5.,          10.,           3.
    819,           4.,          10.,           3.
    820,           3.,          10.,           3.
    821,           2.,          10.,           3.
    822,           1.,          10.,           3.
    823,           9.,          10.,           2.
    824,           8.,          10.,           2.
    825,           7.,          10.,           2.
    826,           6.,          10.,           2.
    827,           5.,          10.,           2.
    828,           4.,          10.,           2.
    829,           3.,          10.,           2.
    830,           2.,          10.,           2.
    831,           1.,          10.,           2.
    832,           9.,          10.,           1.
    833,           8.,          10.,           1.
    834,           7.,          10.,           1.
    835,           6.,          10.,           1.
    836,           5.,          10.,           1.
    837,           4.,          10.,           1.
    838,           3.,          10.,           1.
    839,           2.,          10.,           1.
    840,           1.,          10.,           1.
    841,          10.,           1.,           9.
    842,          10.,           1.,           8.
    843,          10.,           1.,           7.
    844,          10.,           1.,           6.
    845,          10.,           1.,           5.
    846,          10.,           1.,           4.
    847,          10.,           1.,           3.
    848,          10.,           1.,           2.
    849,          10.,           1.,           1.
    850,          10.,           2.,           9.
    851,          10.,           2.,           8.
    852,          10.,           2.,           7.
    853,          10.,           2.,           6.
    854,          10.,           2.,           5.
    855,          10.,           2.,           4.
    856,          10.,           2.,           3.
    857,          10.,           2.,           2.
    858,          10.,           2.,           1.
    859,          10.,           3.,           9.
    860,          10.,           3.,           8.
    861,          10.,           3.,           7.
    862,          10.,           3.,           6.
    863,          10.,           3.,           5.
    864,          10.,           3.,           4.
    865,          10.,           3.,           3.
    866,          10.,           3.,           2.
    867,          10.,           3.,           1.
    868,          10.,           4.,           9.
    869,          10.,           4.,           8.
    870,          10.,           4.,           7.
    871,          10.,           4.,           6.
    872,          10.,           4.,           5.
    873,          10.,           4.,           4.
    874,          10.,           4.,           3.
    875,          10.,           4.,           2.
    876,          10.,           4.,           1.
    877,          10.,           5.,           9.
    878,          10.,           5.,           8.
    879,          10.,           5.,           7.
    880,          10.,           5.,           6.
    881,          10.,           5.,           5.
    882,          10.,           5.,           4.
    883,          10.,           5.,           3.
    884,          10.,           5.,           2.
    885,          10.,           5.,           1.
    886,          10.,           6.,           9.
    887,          10.,           6.,           8.
    888,          10.,           6.,           7.
    889,          10.,           6.,           6.
    890,          10.,           6.,           5.
    891,          10.,           6.,           4.
    892,          10.,           6.,           3.
    893,          10.,           6.,           2.
    894,          10.,           6.,           1.
    895,          10.,           7.,           9.
    896,          10.,           7.,           8.
    897,          10.,           7.,           7.
    898,          10.,           7.,           6.
    899,          10.,           7.,           5.
    900,          10.,           7.,           4.
    901,          10.,           7.,           3.
    902,          10.,           7.,           2.
    903,          10.,           7.,           1.
    904,          10.,           8.,           9.
    905,          10.,           8.,           8.
    906,          10.,           8.,           7.
    907,          10.,           8.,           6.
    908,          10.,           8.,           5.
    909,          10.,           8.,           4.
    910,          10.,           8.,           3.
    911,          10.,           8.,           2.
    912,          10.,           8.,           1.
    913,          10.,           9.,           9.
    914,          10.,           9.,           8.
    915,          10.,           9.,           7.
    916,          10.,           9.,           6.
    917,          10.,           9.,           5.
    918,          10.,           9.,           4.
    919,          10.,           9.,           3.
    920,          10.,           9.,           2.
    921,          10.,           9.,           1.
    922,           0.,           1.,           9.
    923,           0.,           1.,           8.
    924,           0.,           1.,           7.
    925,           0.,           1.,           6.
    926,           0.,           1.,           5.
    927,           0.,           1.,           4.
    928,           0.,           1.,           3.
    929,           0.,           1.,           2.
    930,           0.,           1.,           1.
    931,           0.,           2.,           9.
    932,           0.,           2.,           8.
    933,           0.,           2.,           7.
    934,           0.,           2.,           6.
    935,           0.,           2.,           5.
    936,           0.,           2.,           4.
    937,           0.,           2.,           3.
    938,           0.,           2.,           2.
    939,           0.,           2.,           1.
    940,           0.,           3.,           9.
    941,           0.,           3.,           8.
    942,           0.,           3.,           7.
    943,           0.,           3.,           6.
    944,           0.,           3.,           5.
    945,           0.,           3.,           4.
    946,           0.,           3.,           3.
    947,           0.,           3.,           2.
    948,           0.,           3.,           1.
    949,           0.,           4.,           9.
    950,           0.,           4.,           8.
    951,           0.,           4.,           7.
    952,           0.,           4.,           6.
    953,           0.,           4.,           5.
    954,           0.,           4.,           4.
    955,           0.,           4.,           3.
    956,           0.,           4.,           2.
    957,           0.,           4.,           1.
    958,           0.,           5.,           9.
    959,           0.,           5.,           8.
    960,           0.,           5.,           7.
    961,           0.,           5.,           6.
    962,           0.,           5.,           5.
    963,           0.,           5.,           4.
    964,           0.,           5.,           3.
    965,           0.,           5.,           2.
    966,           0.,           5.,           1.
    967,           0.,           6.,           9.
    968,           0.,           6.,           8.
    969,           0.,           6.,           7.
    970,           0.,           6.,           6.
    971,           0.,           6.,           5.
    972,           0.,           6.,           4.
    973,           0.,           6.,           3.
    974,           0.,           6.,           2.
    975,           0.,           6.,           1.
    976,           0.,           7.,           9.
    977,           0.,           7.,           8.
    978,           0.,           7.,           7.
    979,           0.,           7.,           6.
    980,           0.,           7.,           5.
    981,           0.,           7.,           4.
    982,           0.,           7.,           3.
    983,           0.,           7.,           2.
    984,           0.,           7.,           1.
    985,           0.,           8.,           9.
    986,           0.,           8.,           8.
    987,           0.,           8.,           7.
    988,           0.,           8.,           6.
    989,           0.,           8.,           5.
    990,           0.,           8.,           4.
    991,           0.,           8.,           3.
    992,           0.,           8.,           2.
    993,           0.,           8.,           1.
    994,           0.,           9.,           9.
    995,           0.,           9.,           8.
    996,           0.,           9.,           7.
    997,           0.,           9.,           6.
    998,           0.,           9.,           5.
    999,           0.,           9.,           4.
   1000,           0.,           9.,           3.
   1001,           0.,           9.,           2.
   1002,           0.,           9.,           1.
   1003,           9.,           1.,           0.
   1004,           8.,           1.,           0.
   1005,           7.,           1.,           0.
   1006,           6.,           1.,           0.
   1007,           5.,           1.,           0.
   1008,           4.,           1.,           0.
   1009,           3.,           1.,           0.
   1010,           2.,           1.,           0.
   1011,           1.,           1.,           0.
   1012,           9.,           2.,           0.
   1013,           8.,           2.,           0.
   1014,           7.,           2.,           0.
   1015,           6.,           2.,           0.
   1016,           5.,           2.,           0.
   1017,           4.,           2.,           0.
   1018,           3.,           2.,           0.
   1019,           2.,           2.,           0.
   1020,           1.,           2.,           0.
   1021,           9.,           3.,           0.
   1022,           8.,           3.,           0.
   1023,           7.,           3.,           0.
   1024,           6.,           3.,           0.
   1025,           5.,           3.,           0.
   1026,           4.,           3.,           0.
   1027,           3.,           3.,           0.
   1028,           2.,           3.,           0.
   1029,           1.,           3.,           0.
   1030,           9.,           4.,           0.
   1031,           8.,           4.,           0.
   1032,           7.,           4.,           0.
   1033,           6.,           4.,           0.
   1034,           5.,           4.,           0.
   1035,           4.,           4.,           0.
   1036,           3.,           4.,           0.
   1037,           2.,           4.,           0.
   1038,           1.,           4.,           0.
   1039,           9.,           5.,           0.
   1040,           8.,           5.,           0.
   1041,           7.,           5.,           0.
   1042,           6.,           5.,           0.
   1043,           5.,           5.,           0.
   1044,           4.,           5.,           0.
   1045,           3.,           5.,           0.
   1046,           2.,           5.,           0.
   1047,           1.,           5.,           0.
   1048,           9.,           6.,           0.
   1049,           8.,           6.,           0.
   1050,           7.,           6.,           0.
   1051,           6.,           6.,           0.
   1052,           5.,           6.,           0.
   1053,           4.,           6.,           0.
   1054,           3.,           6.,           0.
   1055,           2.,           6.,           0.
   1056,           1.,           6.,           0.
   1057,           9.,           7.,           0.
   1058,           8.,           7.,           0.
   1059,           7.,           7.,           0.
   1060,           6.,           7.,           0.
   1061,           5.,           7.,           0.
   1062,           4.,           7.,           0.
   1063,           3.,           7.,           0.
   1064,           2.,           7.,           0.
   1065,           1.,           7.,           0.
   1066,           9.,           8.,           0.
   1067,           8.,           8.,           0.
   1068,           7.,           8.,           0.
   1069,           6.,           8.,           0.
   1070,           5.,           8.,           0.
   1071,           4.,           8.,           0.
   1072,           3.,           8.,           0.
   1073,           2.,           8.,           0.
   1074,           1.,           8.,           0.
   1075,           9.,           9.,           0.
   1076,           8.,           9.,           0.
   1077,           7.,           9.,           0.
   1078,           6.,           9.,           0.
   1079,           5.,           9.,           0.
   1080,           4.,           9.,           0.
   1081,           3.,           9.,           0.
   1082,           2.,           9.,           0.
   1083,           1.,           9.,           0.
   1084,           1.,           1.,          11.
   1085,           2.,           1.,          11.
   1086,           3.,           1.,          11.
   1087,           4.,           1.,          11.
   1088,           5.,           1.,          11.
   1089,           6.,           1.,          11.
   1090,           7.,           1.,          11.
   1091,           8.,           1.,          11.
   1092,           9.,           1.,          11.
   1093,           1.,           1.,          12.
   1094,           2.,           1.,          12.
   1095,           3.,           1.,          12.
   1096,           4.,           1.,          12.
   1097,           5.,           1.,          12.
   1098,           6.,           1.,          12.
   1099,           7.,           1.,          12.
   1100,           8.,           1.,          12.
   1101,           9.,           1.,          12.
   1102,           1.,           1.,          13.
   1103,           2.,           1.,          13.
   1104,           3.,           1.,          13.
   1105,           4.,           1.,          13.
   1106,           5.,           1.,          13.
   1107,           6.,           1.,          13.
   1108,           7.,           1.,          13.
   1109,           8.,           1.,          13.
   1110,           9.,           1.,          13.
   1111,           1.,           1.,          14.
   1112,           2.,           1.,          14.
   1113,           3.,           1.,          14.
   1114,           4.,           1.,          14.
   1115,           5.,           1.,          14.
   1116,           6.,           1.,          14.
   1117,           7.,           1.,          14.
   1118,           8.,           1.,          14.
   1119,           9.,           1.,          14.
   1120,           1.,           1.,          15.
   1121,           2.,           1.,          15.
   1122,           3.,           1.,          15.
   1123,           4.,           1.,          15.
   1124,           5.,           1.,          15.
   1125,           6.,           1.,          15.
   1126,           7.,           1.,          15.
   1127,           8.,           1.,          15.
   1128,           9.,           1.,          15.
   1129,           1.,           1.,          16.
   1130,           2.,           1.,          16.
   1131,           3.,           1.,          16.
   1132,           4.,           1.,          16.
   1133,           5.,           1.,          16.
   1134,           6.,           1.,          16.
   1135,           7.,           1.,          16.
   1136,           8.,           1.,          16.
   1137,           9.,           1.,          16.
   1138,           1.,           1.,          17.
   1139,           2.,           1.,          17.
   1140,           3.,           1.,          17.
   1141,           4.,           1.,          17.
   1142,           5.,           1.,          17.
   1143,           6.,           1.,          17.
   1144,           7.,           1.,          17.
   1145,           8.,           1.,          17.
   1146,           9.,           1.,          17.
   1147,           1.,           1.,          18.
   1148,           2.,           1.,          18.
   1149,           3.,           1.,          18.
   1150,           4.,           1.,          18.
   1151,           5.,           1.,          18.
   1152,           6.,           1.,          18.
   1153,           7.,           1.,          18.
   1154,           8.,           1.,          18.
   1155,           9.,           1.,          18.
   1156,           1.,           1.,          19.
   1157,           2.,           1.,          19.
   1158,           3.,           1.,          19.
   1159,           4.,           1.,          19.
   1160,           5.,           1.,          19.
   1161,           6.,           1.,          19.
   1162,           7.,           1.,          19.
   1163,           8.,           1.,          19.
   1164,           9.,           1.,          19.
   1165,           1.,           2.,          11.
   1166,           2.,           2.,          11.
   1167,           3.,           2.,          11.
   1168,           4.,           2.,          11.
   1169,           5.,           2.,          11.
   1170,           6.,           2.,          11.
   1171,           7.,           2.,          11.
   1172,           8.,           2.,          11.
   1173,           9.,           2.,          11.
   1174,           1.,           2.,          12.
   1175,           2.,           2.,          12.
   1176,           3.,           2.,          12.
   1177,           4.,           2.,          12.
   1178,           5.,           2.,          12.
   1179,           6.,           2.,          12.
   1180,           7.,           2.,          12.
   1181,           8.,           2.,          12.
   1182,           9.,           2.,          12.
   1183,           1.,           2.,          13.
   1184,           2.,           2.,          13.
   1185,           3.,           2.,          13.
   1186,           4.,           2.,          13.
   1187,           5.,           2.,          13.
   1188,           6.,           2.,          13.
   1189,           7.,           2.,          13.
   1190,           8.,           2.,          13.
   1191,           9.,           2.,          13.
   1192,           1.,           2.,          14.
   1193,           2.,           2.,          14.
   1194,           3.,           2.,          14.
   1195,           4.,           2.,          14.
   1196,           5.,           2.,          14.
   1197,           6.,           2.,          14.
   1198,           7.,           2.,          14.
   1199,           8.,           2.,          14.
   1200,           9.,           2.,          14.
   1201,           1.,           2.,          15.
   1202,           2.,           2.,          15.
   1203,           3.,           2.,          15.
   1204,           4.,           2.,          15.
   1205,           5.,           2.,          15.
   1206,           6.,           2.,          15.
   1207,           7.,           2.,          15.
   1208,           8.,           2.,          15.
   1209,           9.,           2.,          15.
   1210,           1.,           2.,          16.
   1211,           2.,           2.,          16.
   1212,           3.,           2.,          16.
   1213,           4.,           2.,          16.
   1214,           5.,           2.,          16.
   1215,           6.,           2.,          16.
   1216,           7.,           2.,          16.
   1217,           8.,           2.,          16.
   1218,           9.,           2.,          16.
   1219,           1.,           2.,          17.
   1220,           2.,           2.,          17.
   1221,           3.,           2.,          17.
   1222,           4.,           2.,          17.
   1223,           5.,           2.,          17.
   1224,           6.,           2.,          17.
   1225,           7.,           2.,          17.
   1226,           8.,           2.,          17.
   1227,           9.,           2.,          17.
   1228,           1.,           2.,          18.
   1229,           2.,           2.,          18.
   1230,           3.,           2.,          18.
   1231,           4.,           2.,          18.
   1232,           5.,           2.,          18.
   1233,           6.,           2.,          18.
   1234,           7.,           2.,          18.
   1235,           8.,           2.,          18.
   1236,           9.,           2.,          18.
   1237,           1.,           2.,          19.
   1238,           2.,           2.,          19.
   1239,           3.,           2.,          19.
   1240,           4.,           2.,          19.
   1241,           5.,           2.,          19.
   1242,           6.,           2.,          19.
   1243,           7.,           2.,          19.
   1244,           8.,           2.,          19.
   1245,           9.,           2.,          19.
   1246,           1.,           3.,          11.
   1247,           2.,           3.,          11.
   1248,           3.,           3.,          11.
   1249,           4.,           3.,          11.
   1250,           5.,           3.,          11.
   1251,           6.,           3.,          11.
   1252,           7.,           3.,          11.
   1253,           8.,           3.,          11.
   1254,           9.,           3.,          11.
   1255,           1.,           3.,          12.
   1256,           2.,           3.,          12.
   1257,           3.,           3.,          12.
   1258,           4.,           3.,          12.
   1259,           5.,           3.,          12.
   1260,           6.,           3.,          12.
   1261,           7.,           3.,          12.
   1262,           8.,           3.,          12.
   1263,           9.,           3.,          12.
   1264,           1.,           3.,          13.
   1265,           2.,           3.,          13.
   1266,           3.,           3.,          13.
   1267,           4.,           3.,          13.
   1268,           5.,           3.,          13.
   1269,           6.,           3.,          13.
   1270,           7.,           3.,          13.
   1271,           8.,           3.,          13.
   1272,           9.,           3.,          13.
   1273,           1.,           3.,          14.
   1274,           2.,           3.,          14.
   1275,           3.,           3.,          14.
   1276,           4.,           3.,          14.
   1277,           5.,           3.,          14.
   1278,           6.,           3.,          14.
   1279,           7.,           3.,          14.
   1280,           8.,           3.,          14.
   1281,           9.,           3.,          14.
   1282,           1.,           3.,          15.
   1283,           2.,           3.,          15.
   1284,           3.,           3.,          15.
   1285,           4.,           3.,          15.
   1286,           5.,           3.,          15.
   1287,           6.,           3.,          15.
   1288,           7.,           3.,          15.
   1289,           8.,           3.,          15.
   1290,           9.,           3.,          15.
   1291,           1.,           3.,          16.
   1292,           2.,           3.,          16.
   1293,           3.,           3.,          16.
   1294,           4.,           3.,          16.
   1295,           5.,           3.,          16.
   1296,           6.,           3.,          16.
   1297,           7.,           3.,          16.
   1298,           8.,           3.,          16.
   1299,           9.,           3.,          16.
   1300,           1.,           3.,          17.
   1301,           2.,           3.,          17.
   1302,           3.,           3.,          17.
   1303,           4.,           3.,          17.
   1304,           5.,           3.,          17.
   1305,           6.,           3.,          17.
   1306,           7.,           3.,          17.
   1307,           8.,           3.,          17.
   1308,           9.,           3.,          17.
   1309,           1.,           3.,          18.
   1310,           2.,           3.,          18.
   1311,           3.,           3.,          18.
   1312,           4.,           3.,          18.
   1313,           5.,           3.,          18.
   1314,           6.,           3.,          18.
   1315,           7.,           3.,          18.
   1316,           8.,           3.,          18.
   1317,           9.,           3.,          18.
   1318,           1.,           3.,          19.
   1319,           2.,           3.,          19.
   1320,           3.,           3.,          19.
   1321,           4.,           3.,          19.
   1322,           5.,           3.,          19.
   1323,           6.,           3.,          19.
   1324,           7.,           3.,          19.
   1325,           8.,           3.,          19.
   1326,           9.,           3.,          19.
   1327,           1.,           4.,          11.
   1328,           2.,           4.,          11.
   1329,           3.,           4.,          11.
   1330,           4.,           4.,          11.
   1331,           5.,           4.,          11.
   1332,           6.,           4.,          11.
   1333,           7.,           4.,          11.
   1334,           8.,           4.,          11.
   1335,           9.,           4.,          11.
   1336,           1.,           4.,          12.
   1337,           2.,           4.,          12.
   1338,           3.,           4.,          12.
   1339,           4.,           4.,          12.
   1340,           5.,           4.,          12.
   1341,           6.,           4.,          12.
   1342,           7.,           4.,          12.
   1343,           8.,           4.,          12.
   1344,           9.,           4.,          12.
   1345,           1.,           4.,          13.
   1346,           2.,           4.,          13.
   1347,           3.,           4.,          13.
   1348,           4.,           4.,          13.
   1349,           5.,           4.,          13.
   1350,           6.,           4.,          13.
   1351,           7.,           4.,          13.
   1352,           8.,           4.,          13.
   1353,           9.,           4.,          13.
   1354,           1.,           4.,          14.
   1355,           2.,           4.,          14.
   1356,           3.,           4.,          14.
   1357,           4.,           4.,          14.
   1358,           5.,           4.,          14.
   1359,           6.,           4.,          14.
   1360,           7.,           4.,          14.
   1361,           8.,           4.,          14.
   1362,           9.,           4.,          14.
   1363,           1.,           4.,          15.
   1364,           2.,           4.,          15.
   1365,           3.,           4.,          15.
   1366,           4.,           4.,          15.
   1367,           5.,           4.,          15.
   1368,           6.,           4.,          15.
   1369,           7.,           4.,          15.
   1370,           8.,           4.,          15.
   1371,           9.,           4.,          15.
   1372,           1.,           4.,          16.
   1373,           2.,           4.,          16.
   1374,           3.,           4.,          16.
   1375,           4.,           4.,          16.
   1376,           5.,           4.,          16.
   1377,           6.,           4.,          16.
   1378,           7.,           4.,          16.
   1379,           8.,           4.,          16.
   1380,           9.,           4.,          16.
   1381,           1.,           4.,          17.
   1382,           2.,           4.,          17.
   1383,           3.,           4.,          17.
   1384,           4.,           4.,          17.
   1385,           5.,           4.,          17.
   1386,           6.,           4.,          17.
   1387,           7.,           4.,          17.
   1388,           8.,           4.,          17.
   1389,           9.,           4.,          17.
   1390,           1.,           4.,          18.
   1391,           2.,           4.,          18.
   1392,           3.,           4.,          18.
   1393,           4.,           4.,          18.
   1394,           5.,           4.,          18.
   1395,           6.,           4.,          18.
   1396,           7.,           4.,          18.
   1397,           8.,           4.,          18.
   1398,           9.,           4.,          18.
   1399,           1.,           4.,          19.
   1400,           2.,           4.,          19.
   1401,           3.,           4.,          19.
   1402,           4.,           4.,          19.
   1403,           5.,           4.,          19.
   1404,           6.,           4.,          19.
   1405,           7.,           4.,          19.
   1406,           8.,           4.,          19.
   1407,           9.,           4.,          19.
   1408,           1.,           5.,          11.
   1409,           2.,           5.,          11.
   1410,           3.,           5.,          11.
   1411,           4.,           5.,          11.
   1412,           5.,           5.,          11.
   1413,           6.,           5.,          11.
   1414,           7.,           5.,          11.
   1415,           8.,           5.,          11.
   1416,           9.,           5.,          11.
   1417,           1.,           5.,          12.
   1418,           2.,           5.,          12.
   1419,           3.,           5.,          12.
   1420,           4.,           5.,          12.
   1421,           5.,           5.,          12.
   1422,           6.,           5.,          12.
   1423,           7.,           5.,          12.
   1424,           8.,           5.,          12.
   1425,           9.,           5.,          12.
   1426,           1.,           5.,          13.
   1427,           2.,           5.,          13.
   1428,           3.,           5.,          13.
   1429,           4.,           5.,          13.
   1430,           5.,           5.,          13.
   1431,           6.,           5.,          13.
   1432,           7.,           5.,          13.
   1433,           8.,           5.,          13.
   1434,           9.,           5.,          13.
   1435,           1.,           5.,          14.
   1436,           2.,           5.,          14.
   1437,           3.,           5.,          14.
   1438,           4.,           5.,          14.
   1439,           5.,           5.,          14.
   1440,           6.,           5.,          14.
   1441,           7.,           5.,          14.
   1442,           8.,           5.,          14.
   1443,           9.,           5.,          14.
   1444,           1.,           5.,          15.
   1445,           2.,           5.,          15.
   1446,           3.,           5.,          15.
   1447,           4.,           5.,          15.
   1448,           5.,           5.,          15.
   1449,           6.,           5.,          15.
   1450,           7.,           5.,          15.
   1451,           8.,           5.,          15.
   1452,           9.,           5.,          15.
   1453,           1.,           5.,          16.
   1454,           2.,           5.,          16.
   1455,           3.,           5.,          16.
   1456,           4.,           5.,          16.
   1457,           5.,           5.,          16.
   1458,           6.,           5.,          16.
   1459,           7.,           5.,          16.
   1460,           8.,           5.,          16.
   1461,           9.,           5.,          16.
   1462,           1.,           5.,          17.
   1463,           2.,           5.,          17.
   1464,           3.,           5.,          17.
   1465,           4.,           5.,          17.
   1466,           5.,           5.,          17.
   1467,           6.,           5.,          17.
   1468,           7.,           5.,          17.
   1469,           8.,           5.,          17.
   1470,           9.,           5.,          17.
   1471,           1.,           5.,          18.
   1472,           2.,           5.,          18.
   1473,           3.,           5.,          18.
   1474,           4.,           5.,          18.
   1475,           5.,           5.,          18.
   1476,           6.,           5.,          18.
   1477,           7.,           5.,          18.
   1478,           8.,           5.,          18.
   1479,           9.,           5.,          18.
   1480,           1.,           5.,          19.
   1481,           2.,           5.,          19.
   1482,           3.,           5.,          19.
   1483,           4.,           5.,          19.
   1484,           5.,           5.,          19.
   1485,           6.,           5.,          19.
   1486,           7.,           5.,          19.
   1487,           8.,           5.,          19.
   1488,           9.,           5.,          19.
   1489,           1.,           6.,          11.
   1490,           2.,           6.,          11.
   1491,           3.,           6.,          11.
   1492,           4.,           6.,          11.
   1493,           5.,           6.,          11.
   1494,           6.,           6.,          11.
   1495,           7.,           6.,          11.
   1496,           8.,           6.,          11.
   1497,           9.,           6.,          11.
   1498,           1.,           6.,          12.
   1499,           2.,           6.,          12.
   1500,           3.,           6.,          12.
   1501,           4.,           6.,          12.
   1502,           5.,           6.,          12.
   1503,           6.,           6.,          12.
   1504,           7.,           6.,          12.
   1505,           8.,           6.,          12.
   1506,           9.,           6.,          12.
   1507,           1.,           6.,          13.
   1508,           2.,           6.,          13.
   1509,           3.,           6.,          13.
   1510,           4.,           6.,          13.
   1511,           5.,           6.,          13.
   1512,           6.,           6.,          13.
   1513,           7.,           6.,          13.
   1514,           8.,           6.,          13.
   1515,           9.,           6.,          13.
   1516,           1.,           6.,          14.
   1517,           2.,           6.,          14.
   1518,           3.,           6.,          14.
   1519,           4.,           6.,          14.
   1520,           5.,           6.,          14.
   1521,           6.,           6.,          14.
   1522,           7.,           6.,          14.
   1523,           8.,           6.,          14.
   1524,           9.,           6.,          14.
   1525,           1.,           6.,          15.
   1526,           2.,           6.,          15.
   1527,           3.,           6.,          15.
   1528,           4.,           6.,          15.
   1529,           5.,           6.,          15.
   1530,           6.,           6.,          15.
   1531,           7.,           6.,          15.
   1532,           8.,           6.,          15.
   1533,           9.,           6.,          15.
   1534,           1.,           6.,          16.
   1535,           2.,           6.,          16.
   1536,           3.,           6.,          16.
   1537,           4.,           6.,          16.
   1538,           5.,           6.,          16.
   1539,           6.,           6.,          16.
   1540,           7.,           6.,          16.
   1541,           8.,           6.,          16.
   1542,           9.,           6.,          16.
   1543,           1.,           6.,          17.
   1544,           2.,           6.,          17.
   1545,           3.,           6.,          17.
   1546,           4.,           6.,          17.
   1547,           5.,           6.,          17.
   1548,           6.,           6.,          17.
   1549,           7.,           6.,          17.
   1550,           8.,           6.,          17.
   1551,           9.,           6.,          17.
   1552,           1.,           6.,          18.
   1553,           2.,           6.,          18.
   1554,           3.,           6.,          18.
   1555,           4.,           6.,          18.
   1556,           5.,           6.,          18.
   1557,           6.,           6.,          18.
   1558,           7.,           6.,          18.
   1559,           8.,           6.,          18.
   1560,           9.,           6.,          18.
   1561,           1.,           6.,          19.
   1562,           2.,           6.,          19.
   1563,           3.,           6.,          19.
   1564,           4.,           6.,          19.
   1565,           5.,           6.,          19.
   1566,           6.,           6.,          19.
   1567,           7.,           6.,          19.
   1568,           8.,           6.,          19.
   1569,           9.,           6.,          19.
   1570,           1.,           7.,          11.
   1571,           2.,           7.,          11.
   1572,           3.,           7.,          11.
   1573,           4.,           7.,          11.
   1574,           5.,           7.,          11.
   1575,           6.,           7.,          11.
   1576,           7.,           7.,          11.
   1577,           8.,           7.,          11.
   1578,           9.,           7.,          11.
   1579,           1.,           7.,          12.
   1580,           2.,           7.,          12.
   1581,           3.,           7.,          12.
   1582,           4.,           7.,          12.
   1583,           5.,           7.,          12.
   1584,           6.,           7.,          12.
   1585,           7.,           7.,          12.
   1586,           8.,           7.,          12.
   1587,           9.,           7.,          12.
   1588,           1.,           7.,          13.
   1589,           2.,           7.,          13.
   1590,           3.,           7.,          13.
   1591,           4.,           7.,          13.
   1592,           5.,           7.,          13.
   1593,           6.,           7.,          13.
   1594,           7.,           7.,          13.
   1595,           8.,           7.,          13.
   1596,           9.,           7.,          13.
   1597,           1.,           7.,          14.
   1598,           2.,           7.,          14.
   1599,           3.,           7.,          14.
   1600,           4.,           7.,          14.
   1601,           5.,           7.,          14.
   1602,           6.,           7.,          14.
   1603,           7.,           7.,          14.
   1604,           8.,           7.,          14.
   1605,           9.,           7.,          14.
   1606,           1.,           7.,          15.
   1607,           2.,           7.,          15.
   1608,           3.,           7.,          15.
   1609,           4.,           7.,          15.
   1610,           5.,           7.,          15.
   1611,           6.,           7.,          15.
   1612,           7.,           7.,          15.
   1613,           8.,           7.,          15.
   1614,           9.,           7.,          15.
   1615,           1.,           7.,          16.
   1616,           2.,           7.,          16.
   1617,           3.,           7.,          16.
   1618,           4.,           7.,          16.
   1619,           5.,           7.,          16.
   1620,           6.,           7.,          16.
   1621,           7.,           7.,          16.
   1622,           8.,           7.,          16.
   1623,           9.,           7.,          16.
   1624,           1.,           7.,          17.
   1625,           2.,           7.,          17.
   1626,           3.,           7.,          17.
   1627,           4.,           7.,          17.
   1628,           5.,           7.,          17.
   1629,           6.,           7.,          17.
   1630,           7.,           7.,          17.
   1631,           8.,           7.,          17.
   1632,           9.,           7.,          17.
   1633,           1.,           7.,          18.
   1634,           2.,           7.,          18.
   1635,           3.,           7.,          18.
   1636,           4.,           7.,          18.
   1637,           5.,           7.,          18.
   1638,           6.,           7.,          18.
   1639,           7.,           7.,          18.
   1640,           8.,           7.,          18.
   1641,           9.,           7.,          18.
   1642,           1.,           7.,          19.
   1643,           2.,           7.,          19.
   1644,           3.,           7.,          19.
   1645,           4.,           7.,          19.
   1646,           5.,           7.,          19.
   1647,           6.,           7.,          19.
   1648,           7.,           7.,          19.
   1649,           8.,           7.,          19.
   1650,           9.,           7.,          19.
   1651,           1.,           8.,          11.
   1652,           2.,           8.,          11.
   1653,           3.,           8.,          11.
   1654,           4.,           8.,          11.
   1655,           5.,           8.,          11.
   1656,           6.,           8.,          11.
   1657,           7.,           8.,          11.
   1658,           8.,           8.,          11.
   1659,           9.,           8.,          11.
   1660,           1.,           8.,          12.
   1661,           2.,           8.,          12.
   1662,           3.,           8.,          12.
   1663,           4.,           8.,          12.
   1664,           5.,           8.,          12.
   1665,           6.,           8.,          12.
   1666,           7.,           8.,          12.
   1667,           8.,           8.,          12.
   1668,           9.,           8.,          12.
   1669,           1.,           8.,          13.
   1670,           2.,           8.,          13.
   1671,           3.,           8.,          13.
   1672,           4.,           8.,          13.
   1673,           5.,           8.,          13.
   1674,           6.,           8.,          13.
   1675,           7.,           8.,          13.
   1676,           8.,           8.,          13.
   1677,           9.,           8.,          13.
   1678,           1.,           8.,          14.
   1679,           2.,           8.,          14.
   1680,           3.,           8.,          14.
   1681,           4.,           8.,          14.
   1682,           5.,           8.,          14.
   1683,           6.,           8.,          14.
   1684,           7.,           8.,          14.
   1685,           8.,           8.,          14.
   1686,           9.,           8.,          14.
   1687,           1.,           8.,          15.
   1688,           2.,           8.,          15.
   1689,           3.,           8.,          15.
   1690,           4.,           8.,          15.
   1691,           5.,           8.,          15.
   1692,           6.,           8.,          15.
   1693,           7.,           8.,          15.
   1694,           8.,           8.,          15.
   1695,           9.,           8.,          15.
   1696,           1.,           8.,          16.
   1697,           2.,           8.,          16.
   1698,           3.,           8.,          16.
   1699,           4.,           8.,          16.
   1700,           5.,           8.,          16.
   1701,           6.,           8.,          16.
   1702,           7.,           8.,          16.
   1703,           8.,           8.,          16.
   1704,           9.,           8.,          16.
   1705,           1.,           8.,          17.
   1706,           2.,           8.,          17.
   1707,           3.,           8.,          17.
   1708,           4.,           8.,          17.
   1709,           5.,           8.,          17.
   1710,           6.,           8.,          17.
   1711,           7.,           8.,          17.
   1712,           8.,           8.,          17.
   1713,           9.,           8.,          17.
   1714,           1.,           8.,          18.
   1715,           2.,           8.,          18.
   1716,           3.,           8.,          18.
   1717,           4.,           8.,          18.
   1718,           5.,           8.,          18.
   1719,           6.,           8.,          18.
   1720,           7.,           8.,          18.
   1721,           8.,           8.,          18.
   1722,           9.,           8.,          18.
   1723,           1.,           8.,          19.
   1724,           2.,           8.,          19.
   1725,           3.,           8.,          19.
   1726,           4.,           8.,          19.
   1727,           5.,           8.,          19.
   1728,           6.,           8.,          19.
   1729,           7.,           8.,          19.
   1730,           8.,           8.,          19.
   1731,           9.,           8.,          19.
   1732,           1.,           9.,          11.
   1733,           2.,           9.,          11.
   1734,           3.,           9.,          11.
   1735,           4.,           9.,          11.
   1736,           5.,           9.,          11.
   1737,           6.,           9.,          11.
   1738,           7.,           9.,          11.
   1739,           8.,           9.,          11.
   1740,           9.,           9.,          11.
   1741,           1.,           9.,          12.
   1742,           2.,           9.,          12.
   1743,           3.,           9.,          12.
   1744,           4.,           9.,          12.
   1745,           5.,           9.,          12.
   1746,           6.,           9.,          12.
   1747,           7.,           9.,          12.
   1748,           8.,           9.,          12.
   1749,           9.,           9.,          12.
   1750,           1.,           9.,          13.
   1751,           2.,           9.,          13.
   1752,           3.,           9.,          13.
   1753,           4.,           9.,          13.
   1754,           5.,           9.,          13.
   1755,           6.,           9.,          13.
   1756,           7.,           9.,          13.
   1757,           8.,           9.,          13.
   1758,           9.,           9.,          13.
   1759,           1.,           9.,          14.
   1760,           2.,           9.,          14.
   1761,           3.,           9.,          14.
   1762,           4.,           9.,          14.
   1763,           5.,           9.,          14.
   1764,           6.,           9.,          14.
   1765,           7.,           9.,          14.
   1766,           8.,           9.,          14.
   1767,           9.,           9.,          14.
   1768,           1.,           9.,          15.
   1769,           2.,           9.,          15.
   1770,           3.,           9.,          15.
   1771,           4.,           9.,          15.
   1772,           5.,           9.,          15.
   1773,           6.,           9.,          15.
   1774,           7.,           9.,          15.
   1775,           8.,           9.,          15.
   1776,           9.,           9.,          15.
   1777,           1.,           9.,          16.
   1778,           2.,           9.,          16.
   1779,           3.,           9.,          16.
   1780,           4.,           9.,          16.
   1781,           5.,           9.,          16.
   1782,           6.,           9.,          16.
   1783,           7.,           9.,          16.
   1784,           8.,           9.,          16.
   1785,           9.,           9.,          16.
   1786,           1.,           9.,          17.
   1787,           2.,           9.,          17.
   1788,           3.,           9.,          17.
   1789,           4.,           9.,          17.
   1790,           5.,           9.,          17.
   1791,           6.,           9.,          17.
   1792,           7.,           9.,          17.
   1793,           8.,           9.,          17.
   1794,           9.,           9.,          17.
   1795,           1.,           9.,          18.
   1796,           2.,           9.,          18.
   1797,           3.,           9.,          18.
   1798,           4.,           9.,          18.
   1799,           5.,           9.,          18.
   1800,           6.,           9.,          18.
   1801,           7.,           9.,          18.
   1802,           8.,           9.,          18.
   1803,           9.,           9.,          18.
   1804,           1.,           9.,          19.
   1805,           2.,           9.,          19.
   1806,           3.,           9.,          19.
   1807,           4.,           9.,          19.
   1808,           5.,           9.,          19.
   1809,           6.,           9.,          19.
   1810,           7.,           9.,          19.
   1811,           8.,           9.,          19.
   1812,           9.,           9.,          19.
   1813,           9.,           1.,           9.
   1814,           8.,           1.,           9.
   1815,           7.,           1.,           9.
   1816,           6.,           1.,           9.
   1817,           5.,           1.,           9.
   1818,           4.,           1.,           9.
   1819,           3.,           1.,           9.
   1820,           2.,           1.,           9.
   1821,           1.,           1.,           9.
   1822,           9.,           1.,           8.
   1823,           8.,           1.,           8.
   1824,           7.,           1.,           8.
   1825,           6.,           1.,           8.
   1826,           5.,           1.,           8.
   1827,           4.,           1.,           8.
   1828,           3.,           1.,           8.
   1829,           2.,           1.,           8.
   1830,           1.,           1.,           8.
   1831,           9.,           1.,           7.
   1832,           8.,           1.,           7.
   1833,           7.,           1.,           7.
   1834,           6.,           1.,           7.
   1835,           5.,           1.,           7.
   1836,           4.,           1.,           7.
   1837,           3.,           1.,           7.
   1838,           2.,           1.,           7.
   1839,           1.,           1.,           7.
   1840,           9.,           1.,           6.
   1841,           8.,           1.,           6.
   1842,           7.,           1.,           6.
   1843,           6.,           1.,           6.
   1844,           5.,           1.,           6.
   1845,           4.,           1.,           6.
   1846,           3.,           1.,           6.
   1847,           2.,           1.,           6.
   1848,           1.,           1.,           6.
   1849,           9.,           1.,           5.
   1850,           8.,           1.,           5.
   1851,           7.,           1.,           5.
   1852,           6.,           1.,           5.
   1853,           5.,           1.,           5.
   1854,           4.,           1.,           5.
   1855,           3.,           1.,           5.
   1856,           2.,           1.,           5.
   1857,           1.,           1.,           5.
   1858,           9.,           1.,           4.
   1859,           8.,           1.,           4.
   1860,           7.,           1.,           4.
   1861,           6.,           1.,           4.
   1862,           5.,           1.,           4.
   1863,           4.,           1.,           4.
   1864,           3.,           1.,           4.
   1865,           2.,           1.,           4.
   1866,           1.,           1.,           4.
   1867,           9.,           1.,           3.
   1868,           8.,           1.,           3.
   1869,           7.,           1.,           3.
   1870,           6.,           1.,           3.
   1871,           5.,           1.,           3.
   1872,           4.,           1.,           3.
   1873,           3.,           1.,           3.
   1874,           2.,           1.,           3.
   1875,           1.,           1.,           3.
   1876,           9.,           1.,           2.
   1877,           8.,           1.,           2.
   1878,           7.,           1.,           2.
   1879,           6.,           1.,           2.
   1880,           5.,           1.,           2.
   1881,           4.,           1.,           2.
   1882,           3.,           1.,           2.
   1883,           2.,           1.,           2.
   1884,           1.,           1.,           2.
   1885,           9.,           1.,           1.
   1886,           8.,           1.,           1.
   1887,           7.,           1.,           1.
   1888,           6.,           1.,           1.
   1889,           5.,           1.,           1.
   1890,           4.,           1.,           1.
   1891,           3.,           1.,           1.
   1892,           2.,           1.,           1.
   1893,           1.,           1.,           1.
   1894,           9.,           2.,           9.
   1895,           8.,           2.,           9.
   1896,           7.,           2.,           9.
   1897,           6.,           2.,           9.
   1898,           5.,           2.,           9.
   1899,           4.,           2.,           9.
   1900,           3.,           2.,           9.
   1901,           2.,           2.,           9.
   1902,           1.,           2.,           9.
   1903,           9.,           2.,           8.
   1904,           8.,           2.,           8.
   1905,           7.,           2.,           8.
   1906,           6.,           2.,           8.
   1907,           5.,           2.,           8.
   1908,           4.,           2.,           8.
   1909,           3.,           2.,           8.
   1910,           2.,           2.,           8.
   1911,           1.,           2.,           8.
   1912,           9.,           2.,           7.
   1913,           8.,           2.,           7.
   1914,           7.,           2.,           7.
   1915,           6.,           2.,           7.
   1916,           5.,           2.,           7.
   1917,           4.,           2.,           7.
   1918,           3.,           2.,           7.
   1919,           2.,           2.,           7.
   1920,           1.,           2.,           7.
   1921,           9.,           2.,           6.
   1922,           8.,           2.,           6.
   1923,           7.,           2.,           6.
   1924,           6.,           2.,           6.
   1925,           5.,           2.,           6.
   1926,           4.,           2.,           6.
   1927,           3.,           2.,           6.
   1928,           2.,           2.,           6.
   1929,           1.,           2.,           6.
   1930,           9.,           2.,           5.
   1931,           8.,           2.,           5.
   1932,           7.,           2.,           5.
   1933,           6.,           2.,           5.
   1934,           5.,           2.,           5.
   1935,           4.,           2.,           5.
   1936,           3.,           2.,           5.
   1937,           2.,           2.,           5.
   1938,           1.,           2.,           5.
   1939,           9.,           2.,           4.
   1940,           8.,           2.,           4.
   1941,           7.,           2.,           4.
   1942,           6.,           2.,           4.
   1943,           5.,           2.,           4.
   1944,           4.,           2.,           4.
   1945,           3.,           2.,           4.
   1946,           2.,           2.,           4.
   1947,           1.,           2.,           4.
   1948,           9.,           2.,           3.
   1949,           8.,           2.,           3.
   1950,           7.,           2.,           3.
   1951,           6.,           2.,           3.
   1952,           5.,           2.,           3.
   1953,           4.,           2.,           3.
   1954,           3.,           2.,           3.
   1955,           2.,           2.,           3.
   1956,           1.,           2.,           3.
   1957,           9.,           2.,           2.
   1958,           8.,           2.,           2.
   1959,           7.,           2.,           2.
   1960,           6.,           2.,           2.
   1961,           5.,           2.,           2.
   1962,           4.,           2.,           2.
   1963,           3.,           2.,           2.
   1964,           2.,           2.,           2.
   1965,           1.,           2.,           2.
   1966,           9.,           2.,           1.
   1967,           8.,           2.,           1.
   1968,           7.,           2.,           1.
   1969,           6.,           2.,           1.
   1970,           5.,           2.,           1.
   1971,           4.,           2.,           1.
   1972,           3.,           2.,           1.
   1973,           2.,           2.,           1.
   1974,           1.,           2.,           1.
   1975,           9.,           3.,           9.
   1976,           8.,           3.,           9.
   1977,           7.,           3.,           9.
   1978,           6.,           3.,           9.
   1979,           5.,           3.,           9.
   1980,           4.,           3.,           9.
   1981,           3.,           3.,           9.
   1982,           2.,           3.,           9.
   1983,           1.,           3.,           9.
   1984,           9.,           3.,           8.
   1985,           8.,           3.,           8.
   1986,           7.,           3.,           8.
   1987,           6.,           3.,           8.
   1988,           5.,           3.,           8.
   1989,           4.,           3.,           8.
   1990,           3.,           3.,           8.
   1991,           2.,           3.,           8.
   1992,           1.,           3.,           8.
   1993,           9.,           3.,           7.
   1994,           8.,           3.,           7.
   1995,           7.,           3.,           7.
   1996,           6.,           3.,           7.
   1997,           5.,           3.,           7.
   1998,           4.,           3.,           7.
   1999,           3.,           3.,           7.
   2000,           2.,           3.,           7.
   2001,           1.,           3.,           7.
   2002,           9.,           3.,           6.
   2003,           8.,           3.,           6.
   2004,           7.,           3.,           6.
   2005,           6.,           3.,           6.
   2006,           5.,           3.,           6.
   2007,           4.,           3.,           6.
   2008,           3.,           3.,           6.
   2009,           2.,           3.,           6.
   2010,           1.,           3.,           6.
   2011,           9.,           3.,           5.
   2012,           8.,           3.,           5.
   2013,           7.,           3.,           5.
   2014,           6.,           3.,           5.
   2015,           5.,           3.,           5.
   2016,           4.,           3.,           5.
   2017,           3.,           3.,           5.
   2018,           2.,           3.,           5.
   2019,           1.,           3.,           5.
   2020,           9.,           3.,           4.
   2021,           8.,           3.,           4.
   2022,           7.,           3.,           4.
   2023,           6.,           3.,           4.
   2024,           5.,           3.,           4.
   2025,           4.,           3.,           4.
   2026,           3.,           3.,           4.
   2027,           2.,           3.,           4.
   2028,           1.,           3.,           4.
   2029,           9.,           3.,           3.
   2030,           8.,           3.,           3.
   2031,           7.,           3.,           3.
   2032,           6.,           3.,           3.
   2033,           5.,           3.,           3.
   2034,           4.,           3.,           3.
   2035,           3.,           3.,           3.
   2036,           2.,           3.,           3.
   2037,           1.,           3.,           3.
   2038,           9.,           3.,           2.
   2039,           8.,           3.,           2.
   2040,           7.,           3.,           2.
   2041,           6.,           3.,           2.
   2042,           5.,           3.,           2.
   2043,           4.,           3.,           2.
   2044,           3.,           3.,           2.
   2045,           2.,           3.,           2.
   2046,           1.,           3.,           2.
   2047,           9.,           3.,           1.
   2048,           8.,           3.,           1.
   2049,           7.,           3.,           1.
   2050,           6.,           3.,           1.
   2051,           5.,           3.,           1.
   2052,           4.,           3.,           1.
   2053,           3.,           3.,           1.
   2054,           2.,           3.,           1.
   2055,           1.,           3.,           1.
   2056,           9.,           4.,           9.
   2057,           8.,           4.,           9.
   2058,           7.,           4.,           9.
   2059,           6.,           4.,           9.
   2060,           5.,           4.,           9.
   2061,           4.,           4.,           9.
   2062,           3.,           4.,           9.
   2063,           2.,           4.,           9.
   2064,           1.,           4.,           9.
   2065,           9.,           4.,           8.
   2066,           8.,           4.,           8.
   2067,           7.,           4.,           8.
   2068,           6.,           4.,           8.
   2069,           5.,           4.,           8.
   2070,           4.,           4.,           8.
   2071,           3.,           4.,           8.
   2072,           2.,           4.,           8.
   2073,           1.,           4.,           8.
   2074,           9.,           4.,           7.
   2075,           8.,           4.,           7.
   2076,           7.,           4.,           7.
   2077,           6.,           4.,           7.
   2078,           5.,           4.,           7.
   2079,           4.,           4.,           7.
   2080,           3.,           4.,           7.
   2081,           2.,           4.,           7.
   2082,           1.,           4.,           7.
   2083,           9.,           4.,           6.
   2084,           8.,           4.,           6.
   2085,           7.,           4.,           6.
   2086,           6.,           4.,           6.
   2087,           5.,           4.,           6.
   2088,           4.,           4.,           6.
   2089,           3.,           4.,           6.
   2090,           2.,           4.,           6.
   2091,           1.,           4.,           6.
   2092,           9.,           4.,           5.
   2093,           8.,           4.,           5.
   2094,           7.,           4.,           5.
   2095,           6.,           4.,           5.
   2096,           5.,           4.,           5.
   2097,           4.,           4.,           5.
   2098,           3.,           4.,           5.
   2099,           2.,           4.,           5.
   2100,           1.,           4.,           5.
   2101,           9.,           4.,           4.
   2102,           8.,           4.,           4.
   2103,           7.,           4.,           4.
   2104,           6.,           4.,           4.
   2105,           5.,           4.,           4.
   2106,           4.,           4.,           4.
   2107,           3.,           4.,           4.
   2108,           2.,           4.,           4.
   2109,           1.,           4.,           4.
   2110,           9.,           4.,           3.
   2111,           8.,           4.,           3.
   2112,           7.,           4.,           3.
   2113,           6.,           4.,           3.
   2114,           5.,           4.,           3.
   2115,           4.,           4.,           3.
   2116,           3.,           4.,           3.
   2117,           2.,           4.,           3.
   2118,           1.,           4.,           3.
   2119,           9.,           4.,           2.
   2120,           8.,           4.,           2.
   2121,           7.,           4.,           2.
   2122,           6.,           4.,           2.
   2123,           5.,           4.,           2.
   2124,           4.,           4.,           2.
   2125,           3.,           4.,           2.
   2126,           2.,           4.,           2.
   2127,           1.,           4.,           2.
   2128,           9.,           4.,           1.
   2129,           8.,           4.,           1.
   2130,           7.,           4.,           1.
   2131,           6.,           4.,           1.
   2132,           5.,           4.,           1.
   2133,           4.,           4.,           1.
   2134,           3.,           4.,           1.
   2135,           2.,           4.,           1.
   2136,           1.,           4.,           1.
   2137,           9.,           5.,           9.
   2138,           8.,           5.,           9.
   2139,           7.,           5.,           9.
   2140,           6.,           5.,           9.
   2141,           5.,           5.,           9.
   2142,           4.,           5.,           9.
   2143,           3.,           5.,           9.
   2144,           2.,           5.,           9.
   2145,           1.,           5.,           9.
   2146,           9.,           5.,           8.
   2147,           8.,           5.,           8.
   2148,           7.,           5.,           8.
   2149,           6.,           5.,           8.
   2150,           5.,           5.,           8.
   2151,           4.,           5.,           8.
   2152,           3.,           5.,           8.
   2153,           2.,           5.,           8.
   2154,           1.,           5.,           8.
   2155,           9.,           5.,           7.
   2156,           8.,           5.,           7.
   2157,           7.,           5.,           7.
   2158,           6.,           5.,           7.
   2159,           5.,           5.,           7.
   2160,           4.,           5.,           7.
   2161,           3.,           5.,           7.
   2162,           2.,           5.,           7.
   2163,           1.,           5.,           7.
   2164,           9.,           5.,           6.
   2165,           8.,           5.,           6.
   2166,           7.,           5.,           6.
   2167,           6.,           5.,           6.
   2168,           5.,           5.,           6.
   2169,           4.,           5.,           6.
   2170,           3.,           5.,           6.
   2171,           2.,           5.,           6.
   2172,           1.,           5.,           6.
   2173,           9.,           5.,           5.
   2174,           8.,           5.,           5.
   2175,           7.,           5.,           5.
   2176,           6.,           5.,           5.
   2177,           5.,           5.,           5.
   2178,           4.,           5.,           5.
   2179,           3.,           5.,           5.
   2180,           2.,           5.,           5.
   2181,           1.,           5.,           5.
   2182,           9.,           5.,           4.
   2183,           8.,           5.,           4.
   2184,           7.,           5.,           4.
   2185,           6.,           5.,           4.
   2186,           5.,           5.,           4.
   2187,           4.,           5.,           4.
   2188,           3.,           5.,           4.
   2189,           2.,           5.,           4.
   2190,           1.,           5.,           4.
   2191,           9.,           5.,           3.
   2192,           8.,           5.,           3.
   2193,           7.,           5.,           3.
   2194,           6.,           5.,           3.
   2195,           5.,           5.,           3.
   2196,           4.,           5.,           3.
   2197,           3.,           5.,           3.
   2198,           2.,           5.,           3.
   2199,           1.,           5.,           3.
   2200,           9.,           5.,           2.
   2201,           8.,           5.,           2.
   2202,           7.,           5.,           2.
   2203,           6.,           5.,           2.
   2204,           5.,           5.,           2.
   2205,           4.,           5.,           2.
   2206,           3.,           5.,           2.
   2207,           2.,           5.,           2.
   2208,           1.,           5.,           2.
   2209,           9.,           5.,           1.
   2210,           8.,           5.,           1.
   2211,           7.,           5.,           1.
   2212,           6.,           5.,           1.
   2213,           5.,           5.,           1.
   2214,           4.,           5.,           1.
   2215,           3.,           5.,           1.
   2216,           2.,           5.,           1.
   2217,           1.,           5.,           1.
   2218,           9.,           6.,           9.
   2219,           8.,           6.,           9.
   2220,           7.,           6.,           9.
   2221,           6.,           6.,           9.
   2222,           5.,           6.,           9.
   2223,           4.,           6.,           9.
   2224,           3.,           6.,           9.
   2225,           2.,           6.,           9.
   2226,           1.,           6.,           9.
   2227,           9.,           6.,           8.
   2228,           8.,           6.,           8.
   2229,           7.,           6.,           8.
   2230,           6.,           6.,           8.
   2231,           5.,           6.,           8.
   2232,           4.,           6.,           8.
   2233,           3.,           6.,           8.
   2234,           2.,           6.,           8.
   2235,           1.,           6.,           8.
   2236,           9.,           6.,           7.
   2237,           8.,           6.,           7.
   2238,           7.,           6.,           7.
   2239,           6.,           6.,           7.
   2240,           5.,           6.,           7.
   2241,           4.,           6.,           7.
   2242,           3.,           6.,           7.
   2243,           2.,           6.,           7.
   2244,           1.,           6.,           7.
   2245,           9.,           6.,           6.
   2246,           8.,           6.,           6.
   2247,           7.,           6.,           6.
   2248,           6.,           6.,           6.
   2249,           5.,           6.,           6.
   2250,           4.,           6.,           6.
   2251,           3.,           6.,           6.
   2252,           2.,           6.,           6.
   2253,           1.,           6.,           6.
   2254,           9.,           6.,           5.
   2255,           8.,           6.,           5.
   2256,           7.,           6.,           5.
   2257,           6.,           6.,           5.
   2258,           5.,           6.,           5.
   2259,           4.,           6.,           5.
   2260,           3.,           6.,           5.
   2261,           2.,           6.,           5.
   2262,           1.,           6.,           5.
   2263,           9.,           6.,           4.
   2264,           8.,           6.,           4.
   2265,           7.,           6.,           4.
   2266,           6.,           6.,           4.
   2267,           5.,           6.,           4.
   2268,           4.,           6.,           4.
   2269,           3.,           6.,           4.
   2270,           2.,           6.,           4.
   2271,           1.,           6.,           4.
   2272,           9.,           6.,           3.
   2273,           8.,           6.,           3.
   2274,           7.,           6.,           3.
   2275,           6.,           6.,           3.
   2276,           5.,           6.,           3.
   2277,           4.,           6.,           3.
   2278,           3.,           6.,           3.
   2279,           2.,           6.,           3.
   2280,           1.,           6.,           3.
   2281,           9.,           6.,           2.
   2282,           8.,           6.,           2.
   2283,           7.,           6.,           2.
   2284,           6.,           6.,           2.
   2285,           5.,           6.,           2.
   2286,           4.,           6.,           2.
   2287,           3.,           6.,           2.
   2288,           2.,           6.,           2.
   2289,           1.,           6.,           2.
   2290,           9.,           6.,           1.
   2291,           8.,           6.,           1.
   2292,           7.,           6.,           1.
   2293,           6.,           6.,           1.
   2294,           5.,           6.,           1.
   2295,           4.,           6.,           1.
   2296,           3.,           6.,           1.
   2297,           2.,           6.,           1.
   2298,           1.,           6.,           1.
   2299,           9.,           7.,           9.
   2300,           8.,           7.,           9.
   2301,           7.,           7.,           9.
   2302,           6.,           7.,           9.
   2303,           5.,           7.,           9.
   2304,           4.,           7.,           9.
   2305,           3.,           7.,           9.
   2306,           2.,           7.,           9.
   2307,           1.,           7.,           9.
   2308,           9.,           7.,           8.
   2309,           8.,           7.,           8.
   2310,           7.,           7.,           8.
   2311,           6.,           7.,           8.
   2312,           5.,           7.,           8.
   2313,           4.,           7.,           8.
   2314,           3.,           7.,           8.
   2315,           2.,           7.,           8.
   2316,           1.,           7.,           8.
   2317,           9.,           7.,           7.
   2318,           8.,           7.,           7.
   2319,           7.,           7.,           7.
   2320,           6.,           7.,           7.
   2321,           5.,           7.,           7.
   2322,           4.,           7.,           7.
   2323,           3.,           7.,           7.
   2324,           2.,           7.,           7.
   2325,           1.,           7.,           7.
   2326,           9.,           7.,           6.
   2327,           8.,           7.,           6.
   2328,           7.,           7.,           6.
   2329,           6.,           7.,           6.
   2330,           5.,           7.,           6.
   2331,           4.,           7.,           6.
   2332,           3.,           7.,           6.
   2333,           2.,           7.,           6.
   2334,           1.,           7.,           6.
   2335,           9.,           7.,           5.
   2336,           8.,           7.,           5.
   2337,           7.,           7.,           5.
   2338,           6.,           7.,           5.
   2339,           5.,           7.,           5.
   2340,           4.,           7.,           5.
   2341,           3.,           7.,           5.
   2342,           2.,           7.,           5.
   2343,           1.,           7.,           5.
   2344,           9.,           7.,           4.
   2345,           8.,           7.,           4.
   2346,           7.,           7.,           4.
   2347,           6.,           7.,           4.
   2348,           5.,           7.,           4.
   2349,           4.,           7.,           4.
   2350,           3.,           7.,           4.
   2351,           2.,           7.,           4.
   2352,           1.,           7.,           4.
   2353,           9.,           7.,           3.
   2354,           8.,           7.,           3.
   2355,           7.,           7.,           3.
   2356,           6.,           7.,           3.
   2357,           5.,           7.,           3.
   2358,           4.,           7.,           3.
   2359,           3.,           7.,           3.
   2360,           2.,           7.,           3.
   2361,           1.,           7.,           3.
   2362,           9.,           7.,           2.
   2363,           8.,           7.,           2.
   2364,           7.,           7.,           2.
   2365,           6.,           7.,           2.
   2366,           5.,           7.,           2.
   2367,           4.,           7.,           2.
   2368,           3.,           7.,           2.
   2369,           2.,           7.,           2.
   2370,           1.,           7.,           2.
   2371,           9.,           7.,           1.
   2372,           8.,           7.,           1.
   2373,           7.,           7.,           1.
   2374,           6.,           7.,           1.
   2375,           5.,           7.,           1.
   2376,           4.,           7.,           1.
   2377,           3.,           7.,           1.
   2378,           2.,           7.,           1.
   2379,           1.,           7.,           1.
   2380,           9.,           8.,           9.
   2381,           8.,           8.,           9.
   2382,           7.,           8.,           9.
   2383,           6.,           8.,           9.
   2384,           5.,           8.,           9.
   2385,           4.,           8.,           9.
   2386,           3.,           8.,           9.
   2387,           2.,           8.,           9.
   2388,           1.,           8.,           9.
   2389,           9.,           8.,           8.
   2390,           8.,           8.,           8.
   2391,           7.,           8.,           8.
   2392,           6.,           8.,           8.
   2393,           5.,           8.,           8.
   2394,           4.,           8.,           8.
   2395,           3.,           8.,           8.
   2396,           2.,           8.,           8.
   2397,           1.,           8.,           8.
   2398,           9.,           8.,           7.
   2399,           8.,           8.,           7.
   2400,           7.,           8.,           7.
   2401,           6.,           8.,           7.
   2402,           5.,           8.,           7.
   2403,           4.,           8.,           7.
   2404,           3.,           8.,           7.
   2405,           2.,           8.,           7.
   2406,           1.,           8.,           7.
   2407,           9.,           8.,           6.
   2408,           8.,           8.,           6.
   2409,           7.,           8.,           6.
   2410,           6.,           8.,           6.
   2411,           5.,           8.,           6.
   2412,           4.,           8.,           6.
   2413,           3.,           8.,           6.
   2414,           2.,           8.,           6.
   2415,           1.,           8.,           6.
   2416,           9.,           8.,           5.
   2417,           8.,           8.,           5.
   2418,           7.,           8.,           5.
   2419,           6.,           8.,           5.
   2420,           5.,           8.,           5.
   2421,           4.,           8.,           5.
   2422,           3.,           8.,           5.
   2423,           2.,           8.,           5.
   2424,           1.,           8.,           5.
   2425,           9.,           8.,           4.
   2426,           8.,           8.,           4.
   2427,           7.,           8.,           4.
   2428,           6.,           8.,           4.
   2429,           5.,           8.,           4.
   2430,           4.,           8.,           4.
   2431,           3.,           8.,           4.
   2432,           2.,           8.,           4.
   2433,           1.,           8.,           4.
   2434,           9.,           8.,           3.
   2435,           8.,           8.,           3.
   2436,           7.,           8.,           3.
   2437,           6.,           8.,           3.
   2438,           5.,           8.,           3.
   2439,           4.,           8.,           3.
   2440,           3.,           8.,           3.
   2441,           2.,           8.,           3.
   2442,           1.,           8.,           3.
   2443,           9.,           8.,           2.
   2444,           8.,           8.,           2.
   2445,           7.,           8.,           2.
   2446,           6.,           8.,           2.
   2447,           5.,           8.,           2.
   2448,           4.,           8.,           2.
   2449,           3.,           8.,           2.
   2450,           2.,           8.,           2.
   2451,           1.,           8.,           2.
   2452,           9.,           8.,           1.
   2453,           8.,           8.,           1.
   2454,           7.,           8.,           1.
   2455,           6.,           8.,           1.
   2456,           5.,           8.,           1.
   2457,           4.,           8.,           1.
   2458,           3.,           8.,           1.
   2459,           2.,           8.,           1.
   2460,           1.,           8.,           1.
   2461,           9.,           9.,           9.
   2462,           8.,           9.,           9.
   2463,           7.,           9.,           9.
   2464,           6.,           9.,           9.
   2465,           5.,           9.,           9.
   2466,           4.,           9.,           9.
   2467,           3.,           9.,           9.
   2468,           2.,           9.,           9.
   2469,           1.,           9.,           9.
   2470,           9.,           9.,           8.
   2471,           8.,           9.,           8.
   2472,           7.,           9.,           8.
   2473,           6.,           9.,           8.
   2474,           5.,           9.,           8.
   2475,           4.,           9.,           8.
   2476,           3.,           9.,           8.
   2477,           2.,           9.,           8.
   2478,           1.,           9.,           8.
   2479,           9.,           9.,           7.
   2480,           8.,           9.,           7.
   2481,           7.,           9.,           7.
   2482,           6.,           9.,           7.
   2483,           5.,           9.,           7.
   2484,           4.,           9.,           7.
   2485,           3.,           9.,           7.
   2486,           2.,           9.,           7.
   2487,           1.,           9.,           7.
   2488,           9.,           9.,           6.
   2489,           8.,           9.,           6.
   2490,           7.,           9.,           6.
   2491,           6.,           9.,           6.
   2492,           5.,           9.,           6.
   2493,           4.,           9.,           6.
   2494,           3.,           9.,           6.
   2495,           2.,           9.,           6.
   2496,           1.,           9.,           6.
   2497,           9.,           9.,           5.
   2498,           8.,           9.,           5.
   2499,           7.,           9.,           5.
   2500,           6.,           9.,           5.
   2501,           5.,           9.,           5.
   2502,           4.,           9.,           5.
   2503,           3.,           9.,           5.
   2504,           2.,           9.,           5.
   2505,           1.,           9.,           5.
   2506,           9.,           9.,           4.
   2507,           8.,           9.,           4.
   2508,           7.,           9.,           4.
   2509,           6.,           9.,           4.
   2510,           5.,           9.,           4.
   2511,           4.,           9.,           4.
   2512,           3.,           9.,           4.
   2513,           2.,           9.,           4.
   2514,           1.,           9.,           4.
   2515,           9.,           9.,           3.
   2516,           8.,           9.,           3.
   2517,           7.,           9.,           3.
   2518,           6.,           9.,           3.
   2519,           5.,           9.,           3.
   2520,           4.,           9.,           3.
   2521,           3.,           9.,           3.
   2522,           2.,           9.,           3.
   2523,           1.,           9.,           3.
   2524,           9.,           9.,           2.
   2525,           8.,           9.,           2.
   2526,           7.,           9.,           2.
   2527,           6.,           9.,           2.
   2528,           5.,           9.,           2.
   2529,           4.,           9.,           2.
   2530,           3.,           9.,           2.
   2531,           2.,           9.,           2.
   2532,           1.,           9.,           2.
   2533,           9.,           9.,           1.
   2534,           8.,           9.,           1.
   2535,           7.,           9.,           1.
   2536,           6.,           9.,           1.
   2537,           5.,           9.,           1.
   2538,           4.,           9.,           1.
   2539,           3.,           9.,           1.
   2540,           2.,           9.,           1.
   2541,           1.,           9.,           1.
*Element, type=C3D8R
   1,  102,  517, 1084,  355,    1,   13,  193,   48
   2,  517,  518, 1085, 1084,   13,   14,  194,  193
   3,  518,  519, 1086, 1085,   14,   15,  195,  194
   4,  519,  520, 1087, 1086,   15,   16,  196,  195
   5,  520,  521, 1088, 1087,   16,   17,  197,  196
   6,  521,  522, 1089, 1088,   17,   18,  198,  197
   7,  522,  523, 1090, 1089,   18,   19,  199,  198
   8,  523,  524, 1091, 1090,   19,   20,  200,  199
   9,  524,  525, 1092, 1091,   20,   21,  201,  200
  10,  525,  112,  436, 1092,   21,    2,   22,  201
  11,  355, 1084, 1093,  356,   48,  193,  202,   47
  12, 1084, 1085, 1094, 1093,  193,  194,  203,  202
  13, 1085, 1086, 1095, 1094,  194,  195,  204,  203
  14, 1086, 1087, 1096, 1095,  195,  196,  205,  204
  15, 1087, 1088, 1097, 1096,  196,  197,  206,  205
  16, 1088, 1089, 1098, 1097,  197,  198,  207,  206
  17, 1089, 1090, 1099, 1098,  198,  199,  208,  207
  18, 1090, 1091, 1100, 1099,  199,  200,  209,  208
  19, 1091, 1092, 1101, 1100,  200,  201,  210,  209
  20, 1092,  436,  437, 1101,  201,   22,   23,  210
  21,  356, 1093, 1102,  357,   47,  202,  211,   46
  22, 1093, 1094, 1103, 1102,  202,  203,  212,  211
  23, 1094, 1095, 1104, 1103,  203,  204,  213,  212
  24, 1095, 1096, 1105, 1104,  204,  205,  214,  213
  25, 1096, 1097, 1106, 1105,  205,  206,  215,  214
  26, 1097, 1098, 1107, 1106,  206,  207,  216,  215
  27, 1098, 1099, 1108, 1107,  207,  208,  217,  216
  28, 1099, 1100, 1109, 1108,  208,  209,  218,  217
  29, 1100, 1101, 1110, 1109,  209,  210,  219,  218
  30, 1101,  437,  438, 1110,  210,   23,   24,  219
  31,  357, 1102, 1111,  358,   46,  211,  220,   45
  32, 1102, 1103, 1112, 1111,  211,  212,  221,  220
  33, 1103, 1104, 1113, 1112,  212,  213,  222,  221
  34, 1104, 1105, 1114, 1113,  213,  214,  223,  222
  35, 1105, 1106, 1115, 1114,  214,  215,  224,  223
  36, 1106, 1107, 1116, 1115,  215,  216,  225,  224
  37, 1107, 1108, 1117, 1116,  216,  217,  226,  225
  38, 1108, 1109, 1118, 1117,  217,  218,  227,  226
  39, 1109, 1110, 1119, 1118,  218,  219,  228,  227
  40, 1110,  438,  439, 1119,  219,   24,   25,  228
  41,  358, 1111, 1120,  359,   45,  220,  229,   44
  42, 1111, 1112, 1121, 1120,  220,  221,  230,  229
  43, 1112, 1113, 1122, 1121,  221,  222,  231,  230
  44, 1113, 1114, 1123, 1122,  222,  223,  232,  231
  45, 1114, 1115, 1124, 1123,  223,  224,  233,  232
  46, 1115, 1116, 1125, 1124,  224,  225,  234,  233
  47, 1116, 1117, 1126, 1125,  225,  226,  235,  234
  48, 1117, 1118, 1127, 1126,  226,  227,  236,  235
  49, 1118, 1119, 1128, 1127,  227,  228,  237,  236
  50, 1119,  439,  440, 1128,  228,   25,   26,  237
  51,  359, 1120, 1129,  360,   44,  229,  238,   43
  52, 1120, 1121, 1130, 1129,  229,  230,  239,  238
  53, 1121, 1122, 1131, 1130,  230,  231,  240,  239
  54, 1122, 1123, 1132, 1131,  231,  232,  241,  240
  55, 1123, 1124, 1133, 1132,  232,  233,  242,  241
  56, 1124, 1125, 1134, 1133,  233,  234,  243,  242
  57, 1125, 1126, 1135, 1134,  234,  235,  244,  243
  58, 1126, 1127, 1136, 1135,  235,  236,  245,  244
  59, 1127, 1128, 1137, 1136,  236,  237,  246,  245
  60, 1128,  440,  441, 1137,  237,   26,   27,  246
  61,  360, 1129, 1138,  361,   43,  238,  247,   42
  62, 1129, 1130, 1139, 1138,  238,  239,  248,  247
  63, 1130, 1131, 1140, 1139,  239,  240,  249,  248
  64, 1131, 1132, 1141, 1140,  240,  241,  250,  249
  65, 1132, 1133, 1142, 1141,  241,  242,  251,  250
  66, 1133, 1134, 1143, 1142,  242,  243,  252,  251
  67, 1134, 1135, 1144, 1143,  243,  244,  253,  252
  68, 1135, 1136, 1145, 1144,  244,  245,  254,  253
  69, 1136, 1137, 1146, 1145,  245,  246,  255,  254
  70, 1137,  441,  442, 1146,  246,   27,   28,  255
  71,  361, 1138, 1147,  362,   42,  247,  256,   41
  72, 1138, 1139, 1148, 1147,  247,  248,  257,  256
  73, 1139, 1140, 1149, 1148,  248,  249,  258,  257
  74, 1140, 1141, 1150, 1149,  249,  250,  259,  258
  75, 1141, 1142, 1151, 1150,  250,  251,  260,  259
  76, 1142, 1143, 1152, 1151,  251,  252,  261,  260
  77, 1143, 1144, 1153, 1152,  252,  253,  262,  261
  78, 1144, 1145, 1154, 1153,  253,  254,  263,  262
  79, 1145, 1146, 1155, 1154,  254,  255,  264,  263
  80, 1146,  442,  443, 1155,  255,   28,   29,  264
  81,  362, 1147, 1156,  363,   41,  256,  265,   40
  82, 1147, 1148, 1157, 1156,  256,  257,  266,  265
  83, 1148, 1149, 1158, 1157,  257,  258,  267,  266
  84, 1149, 1150, 1159, 1158,  258,  259,  268,  267
  85, 1150, 1151, 1160, 1159,  259,  260,  269,  268
  86, 1151, 1152, 1161, 1160,  260,  261,  270,  269
  87, 1152, 1153, 1162, 1161,  261,  262,  271,  270
  88, 1153, 1154, 1163, 1162,  262,  263,  272,  271
  89, 1154, 1155, 1164, 1163,  263,  264,  273,  272
  90, 1155,  443,  444, 1164,  264,   29,   30,  273
  91,  363, 1156,  598,   85,   40,  265,   39,    4
  92, 1156, 1157,  599,  598,  265,  266,   38,   39
  93, 1157, 1158,  600,  599,  266,  267,   37,   38
  94, 1158, 1159,  601,  600,  267,  268,   36,   37
  95, 1159, 1160,  602,  601,  268,  269,   35,   36
  96, 1160, 1161,  603,  602,  269,  270,   34,   35
  97, 1161, 1162,  604,  603,  270,  271,   33,   34
  98, 1162, 1163,  605,  604,  271,  272,   32,   33
  99, 1163, 1164,  606,  605,  272,  273,   31,   32
 100, 1164,  444,  111,  606,  273,   30,    3,   31
 101,  101,  526, 1165,  364,  102,  517, 1084,  355
 102,  526,  527, 1166, 1165,  517,  518, 1085, 1084
 103,  527,  528, 1167, 1166,  518,  519, 1086, 1085
 104,  528,  529, 1168, 1167,  519,  520, 1087, 1086
 105,  529,  530, 1169, 1168,  520,  521, 1088, 1087
 106,  530,  531, 1170, 1169,  521,  522, 1089, 1088
 107,  531,  532, 1171, 1170,  522,  523, 1090, 1089
 108,  532,  533, 1172, 1171,  523,  524, 1091, 1090
 109,  533,  534, 1173, 1172,  524,  525, 1092, 1091
 110,  534,  113,  445, 1173,  525,  112,  436, 1092
 111,  364, 1165, 1174,  365,  355, 1084, 1093,  356
 112, 1165, 1166, 1175, 1174, 1084, 1085, 1094, 1093
 113, 1166, 1167, 1176, 1175, 1085, 1086, 1095, 1094
 114, 1167, 1168, 1177, 1176, 1086, 1087, 1096, 1095
 115, 1168, 1169, 1178, 1177, 1087, 1088, 1097, 1096
 116, 1169, 1170, 1179, 1178, 1088, 1089, 1098, 1097
 117, 1170, 1171, 1180, 1179, 1089, 1090, 1099, 1098
 118, 1171, 1172, 1181, 1180, 1090, 1091, 1100, 1099
 119, 1172, 1173, 1182, 1181, 1091, 1092, 1101, 1100
 120, 1173,  445,  446, 1182, 1092,  436,  437, 1101
 121,  365, 1174, 1183,  366,  356, 1093, 1102,  357
 122, 1174, 1175, 1184, 1183, 1093, 1094, 1103, 1102
 123, 1175, 1176, 1185, 1184, 1094, 1095, 1104, 1103
 124, 1176, 1177, 1186, 1185, 1095, 1096, 1105, 1104
 125, 1177, 1178, 1187, 1186, 1096, 1097, 1106, 1105
 126, 1178, 1179, 1188, 1187, 1097, 1098, 1107, 1106
 127, 1179, 1180, 1189, 1188, 1098, 1099, 1108, 1107
 128, 1180, 1181, 1190, 1189, 1099, 1100, 1109, 1108
 129, 1181, 1182, 1191, 1190, 1100, 1101, 1110, 1109
 130, 1182,  446,  447, 1191, 1101,  437,  438, 1110
 131,  366, 1183, 1192,  367,  357, 1102, 1111,  358
 132, 1183, 1184, 1193, 1192, 1102, 1103, 1112, 1111
 133, 1184, 1185, 1194, 1193, 1103, 1104, 1113, 1112
 134, 1185, 1186, 1195, 1194, 1104, 1105, 1114, 1113
 135, 1186, 1187, 1196, 1195, 1105, 1106, 1115, 1114
 136, 1187, 1188, 1197, 1196, 1106, 1107, 1116, 1115
 137, 1188, 1189, 1198, 1197, 1107, 1108, 1117, 1116
 138, 1189, 1190, 1199, 1198, 1108, 1109, 1118, 1117
 139, 1190, 1191, 1200, 1199, 1109, 1110, 1119, 1118
 140, 1191,  447,  448, 1200, 1110,  438,  439, 1119
 141,  367, 1192, 1201,  368,  358, 1111, 1120,  359
 142, 1192, 1193, 1202, 1201, 1111, 1112, 1121, 1120
 143, 1193, 1194, 1203, 1202, 1112, 1113, 1122, 1121
 144, 1194, 1195, 1204, 1203, 1113, 1114, 1123, 1122
 145, 1195, 1196, 1205, 1204, 1114, 1115, 1124, 1123
 146, 1196, 1197, 1206, 1205, 1115, 1116, 1125, 1124
 147, 1197, 1198, 1207, 1206, 1116, 1117, 1126, 1125
 148, 1198, 1199, 1208, 1207, 1117, 1118, 1127, 1126
 149, 1199, 1200, 1209, 1208, 1118, 1119, 1128, 1127
 150, 1200,  448,  449, 1209, 1119,  439,  440, 1128
 151,  368, 1201, 1210,  369,  359, 1120, 1129,  360
 152, 1201, 1202, 1211, 1210, 1120, 1121, 1130, 1129
 153, 1202, 1203, 1212, 1211, 1121, 1122, 1131, 1130
 154, 1203, 1204, 1213, 1212, 1122, 1123, 1132, 1131
 155, 1204, 1205, 1214, 1213, 1123, 1124, 1133, 1132
 156, 1205, 1206, 1215, 1214, 1124, 1125, 1134, 1133
 157, 1206, 1207, 1216, 1215, 1125, 1126, 1135, 1134
 158, 1207, 1208, 1217, 1216, 1126, 1127, 1136, 1135
 159, 1208, 1209, 1218, 1217, 1127, 1128, 1137, 1136
 160, 1209,  449,  450, 1218, 1128,  440,  441, 1137
 161,  369, 1210, 1219,  370,  360, 1129, 1138,  361
 162, 1210, 1211, 1220, 1219, 1129, 1130, 1139, 1138
 163, 1211, 1212, 1221, 1220, 1130, 1131, 1140, 1139
 164, 1212, 1213, 1222, 1221, 1131, 1132, 1141, 1140
 165, 1213, 1214, 1223, 1222, 1132, 1133, 1142, 1141
 166, 1214, 1215, 1224, 1223, 1133, 1134, 1143, 1142
 167, 1215, 1216, 1225, 1224, 1134, 1135, 1144, 1143
 168, 1216, 1217, 1226, 1225, 1135, 1136, 1145, 1144
 169, 1217, 1218, 1227, 1226, 1136, 1137, 1146, 1145
 170, 1218,  450,  451, 1227, 1137,  441,  442, 1146
 171,  370, 1219, 1228,  371,  361, 1138, 1147,  362
 172, 1219, 1220, 1229, 1228, 1138, 1139, 1148, 1147
 173, 1220, 1221, 1230, 1229, 1139, 1140, 1149, 1148
 174, 1221, 1222, 1231, 1230, 1140, 1141, 1150, 1149
 175, 1222, 1223, 1232, 1231, 1141, 1142, 1151, 1150
 176, 1223, 1224, 1233, 1232, 1142, 1143, 1152, 1151
 177, 1224, 1225, 1234, 1233, 1143, 1144, 1153, 1152
 178, 1225, 1226, 1235, 1234, 1144, 1145, 1154, 1153
 179, 1226, 1227, 1236, 1235, 1145, 1146, 1155, 1154
 180, 1227,  451,  452, 1236, 1146,  442,  443, 1155
 181,  371, 1228, 1237,  372,  362, 1147, 1156,  363
 182, 1228, 1229, 1238, 1237, 1147, 1148, 1157, 1156
 183, 1229, 1230, 1239, 1238, 1148, 1149, 1158, 1157
 184, 1230, 1231, 1240, 1239, 1149, 1150, 1159, 1158
 185, 1231, 1232, 1241, 1240, 1150, 1151, 1160, 1159
 186, 1232, 1233, 1242, 1241, 1151, 1152, 1161, 1160
 187, 1233, 1234, 1243, 1242, 1152, 1153, 1162, 1161
 188, 1234, 1235, 1244, 1243, 1153, 1154, 1163, 1162
 189, 1235, 1236, 1245, 1244, 1154, 1155, 1164, 1163
 190, 1236,  452,  453, 1245, 1155,  443,  444, 1164
 191,  372, 1237,  607,   86,  363, 1156,  598,   85
 192, 1237, 1238,  608,  607, 1156, 1157,  599,  598
 193, 1238, 1239,  609,  608, 1157, 1158,  600,  599
 194, 1239, 1240,  610,  609, 1158, 1159,  601,  600
 195, 1240, 1241,  611,  610, 1159, 1160,  602,  601
 196, 1241, 1242,  612,  611, 1160, 1161,  603,  602
 197, 1242, 1243,  613,  612, 1161, 1162,  604,  603
 198, 1243, 1244,  614,  613, 1162, 1163,  605,  604
 199, 1244, 1245,  615,  614, 1163, 1164,  606,  605
 200, 1245,  453,  110,  615, 1164,  444,  111,  606
 201,  100,  535, 1246,  373,  101,  526, 1165,  364
 202,  535,  536, 1247, 1246,  526,  527, 1166, 1165
 203,  536,  537, 1248, 1247,  527,  528, 1167, 1166
 204,  537,  538, 1249, 1248,  528,  529, 1168, 1167
 205,  538,  539, 1250, 1249,  529,  530, 1169, 1168
 206,  539,  540, 1251, 1250,  530,  531, 1170, 1169
 207,  540,  541, 1252, 1251,  531,  532, 1171, 1170
 208,  541,  542, 1253, 1252,  532,  533, 1172, 1171
 209,  542,  543, 1254, 1253,  533,  534, 1173, 1172
 210,  543,  114,  454, 1254,  534,  113,  445, 1173
 211,  373, 1246, 1255,  374,  364, 1165, 1174,  365
 212, 1246, 1247, 1256, 1255, 1165, 1166, 1175, 1174
 213, 1247, 1248, 1257, 1256, 1166, 1167, 1176, 1175
 214, 1248, 1249, 1258, 1257, 1167, 1168, 1177, 1176
 215, 1249, 1250, 1259, 1258, 1168, 1169, 1178, 1177
 216, 1250, 1251, 1260, 1259, 1169, 1170, 1179, 1178
 217, 1251, 1252, 1261, 1260, 1170, 1171, 1180, 1179
 218, 1252, 1253, 1262, 1261, 1171, 1172, 1181, 1180
 219, 1253, 1254, 1263, 1262, 1172, 1173, 1182, 1181
 220, 1254,  454,  455, 1263, 1173,  445,  446, 1182
 221,  374, 1255, 1264,  375,  365, 1174, 1183,  366
 222, 1255, 1256, 1265, 1264, 1174, 1175, 1184, 1183
 223, 1256, 1257, 1266, 1265, 1175, 1176, 1185, 1184
 224, 1257, 1258, 1267, 1266, 1176, 1177, 1186, 1185
 225, 1258, 1259, 1268, 1267, 1177, 1178, 1187, 1186
 226, 1259, 1260, 1269, 1268, 1178, 1179, 1188, 1187
 227, 1260, 1261, 1270, 1269, 1179, 1180, 1189, 1188
 228, 1261, 1262, 1271, 1270, 1180, 1181, 1190, 1189
 229, 1262, 1263, 1272, 1271, 1181, 1182, 1191, 1190
 230, 1263,  455,  456, 1272, 1182,  446,  447, 1191
 231,  375, 1264, 1273,  376,  366, 1183, 1192,  367
 232, 1264, 1265, 1274, 1273, 1183, 1184, 1193, 1192
 233, 1265, 1266, 1275, 1274, 1184, 1185, 1194, 1193
 234, 1266, 1267, 1276, 1275, 1185, 1186, 1195, 1194
 235, 1267, 1268, 1277, 1276, 1186, 1187, 1196, 1195
 236, 1268, 1269, 1278, 1277, 1187, 1188, 1197, 1196
 237, 1269, 1270, 1279, 1278, 1188, 1189, 1198, 1197
 238, 1270, 1271, 1280, 1279, 1189, 1190, 1199, 1198
 239, 1271, 1272, 1281, 1280, 1190, 1191, 1200, 1199
 240, 1272,  456,  457, 1281, 1191,  447,  448, 1200
 241,  376, 1273, 1282,  377,  367, 1192, 1201,  368
 242, 1273, 1274, 1283, 1282, 1192, 1193, 1202, 1201
 243, 1274, 1275, 1284, 1283, 1193, 1194, 1203, 1202
 244, 1275, 1276, 1285, 1284, 1194, 1195, 1204, 1203
 245, 1276, 1277, 1286, 1285, 1195, 1196, 1205, 1204
 246, 1277, 1278, 1287, 1286, 1196, 1197, 1206, 1205
 247, 1278, 1279, 1288, 1287, 1197, 1198, 1207, 1206
 248, 1279, 1280, 1289, 1288, 1198, 1199, 1208, 1207
 249, 1280, 1281, 1290, 1289, 1199, 1200, 1209, 1208
 250, 1281,  457,  458, 1290, 1200,  448,  449, 1209
 251,  377, 1282, 1291,  378,  368, 1201, 1210,  369
 252, 1282, 1283, 1292, 1291, 1201, 1202, 1211, 1210
 253, 1283, 1284, 1293, 1292, 1202, 1203, 1212, 1211
 254, 1284, 1285, 1294, 1293, 1203, 1204, 1213, 1212
 255, 1285, 1286, 1295, 1294, 1204, 1205, 1214, 1213
 256, 1286, 1287, 1296, 1295, 1205, 1206, 1215, 1214
 257, 1287, 1288, 1297, 1296, 1206, 1207, 1216, 1215
 258, 1288, 1289, 1298, 1297, 1207, 1208, 1217, 1216
 259, 1289, 1290, 1299, 1298, 1208, 1209, 1218, 1217
 260, 1290,  458,  459, 1299, 1209,  449,  450, 1218
 261,  378, 1291, 1300,  379,  369, 1210, 1219,  370
 262, 1291, 1292, 1301, 1300, 1210, 1211, 1220, 1219
 263, 1292, 1293, 1302, 1301, 1211, 1212, 1221, 1220
 264, 1293, 1294, 1303, 1302, 1212, 1213, 1222, 1221
 265, 1294, 1295, 1304, 1303, 1213, 1214, 1223, 1222
 266, 1295, 1296, 1305, 1304, 1214, 1215, 1224, 1223
 267, 1296, 1297, 1306, 1305, 1215, 1216, 1225, 1224
 268, 1297, 1298, 1307, 1306, 1216, 1217, 1226, 1225
 269, 1298, 1299, 1308, 1307, 1217, 1218, 1227, 1226
 270, 1299,  459,  460, 1308, 1218,  450,  451, 1227
 271,  379, 1300, 1309,  380,  370, 1219, 1228,  371
 272, 1300, 1301, 1310, 1309, 1219, 1220, 1229, 1228
 273, 1301, 1302, 1311, 1310, 1220, 1221, 1230, 1229
 274, 1302, 1303, 1312, 1311, 1221, 1222, 1231, 1230
 275, 1303, 1304, 1313, 1312, 1222, 1223, 1232, 1231
 276, 1304, 1305, 1314, 1313, 1223, 1224, 1233, 1232
 277, 1305, 1306, 1315, 1314, 1224, 1225, 1234, 1233
 278, 1306, 1307, 1316, 1315, 1225, 1226, 1235, 1234
 279, 1307, 1308, 1317, 1316, 1226, 1227, 1236, 1235
 280, 1308,  460,  461, 1317, 1227,  451,  452, 1236
 281,  380, 1309, 1318,  381,  371, 1228, 1237,  372
 282, 1309, 1310, 1319, 1318, 1228, 1229, 1238, 1237
 283, 1310, 1311, 1320, 1319, 1229, 1230, 1239, 1238
 284, 1311, 1312, 1321, 1320, 1230, 1231, 1240, 1239
 285, 1312, 1313, 1322, 1321, 1231, 1232, 1241, 1240
 286, 1313, 1314, 1323, 1322, 1232, 1233, 1242, 1241
 287, 1314, 1315, 1324, 1323, 1233, 1234, 1243, 1242
 288, 1315, 1316, 1325, 1324, 1234, 1235, 1244, 1243
 289, 1316, 1317, 1326, 1325, 1235, 1236, 1245, 1244
 290, 1317,  461,  462, 1326, 1236,  452,  453, 1245
 291,  381, 1318,  616,   87,  372, 1237,  607,   86
 292, 1318, 1319,  617,  616, 1237, 1238,  608,  607
 293, 1319, 1320,  618,  617, 1238, 1239,  609,  608
 294, 1320, 1321,  619,  618, 1239, 1240,  610,  609
 295, 1321, 1322,  620,  619, 1240, 1241,  611,  610
 296, 1322, 1323,  621,  620, 1241, 1242,  612,  611
 297, 1323, 1324,  622,  621, 1242, 1243,  613,  612
 298, 1324, 1325,  623,  622, 1243, 1244,  614,  613
 299, 1325, 1326,  624,  623, 1244, 1245,  615,  614
 300, 1326,  462,  109,  624, 1245,  453,  110,  615
 301,   99,  544, 1327,  382,  100,  535, 1246,  373
 302,  544,  545, 1328, 1327,  535,  536, 1247, 1246
 303,  545,  546, 1329, 1328,  536,  537, 1248, 1247
 304,  546,  547, 1330, 1329,  537,  538, 1249, 1248
 305,  547,  548, 1331, 1330,  538,  539, 1250, 1249
 306,  548,  549, 1332, 1331,  539,  540, 1251, 1250
 307,  549,  550, 1333, 1332,  540,  541, 1252, 1251
 308,  550,  551, 1334, 1333,  541,  542, 1253, 1252
 309,  551,  552, 1335, 1334,  542,  543, 1254, 1253
 310,  552,  115,  463, 1335,  543,  114,  454, 1254
 311,  382, 1327, 1336,  383,  373, 1246, 1255,  374
 312, 1327, 1328, 1337, 1336, 1246, 1247, 1256, 1255
 313, 1328, 1329, 1338, 1337, 1247, 1248, 1257, 1256
 314, 1329, 1330, 1339, 1338, 1248, 1249, 1258, 1257
 315, 1330, 1331, 1340, 1339, 1249, 1250, 1259, 1258
 316, 1331, 1332, 1341, 1340, 1250, 1251, 1260, 1259
 317, 1332, 1333, 1342, 1341, 1251, 1252, 1261, 1260
 318, 1333, 1334, 1343, 1342, 1252, 1253, 1262, 1261
 319, 1334, 1335, 1344, 1343, 1253, 1254, 1263, 1262
 320, 1335,  463,  464, 1344, 1254,  454,  455, 1263
 321,  383, 1336, 1345,  384,  374, 1255, 1264,  375
 322, 1336, 1337, 1346, 1345, 1255, 1256, 1265, 1264
 323, 1337, 1338, 1347, 1346, 1256, 1257, 1266, 1265
 324, 1338, 1339, 1348, 1347, 1257, 1258, 1267, 1266
 325, 1339, 1340, 1349, 1348, 1258, 1259, 1268, 1267
 326, 1340, 1341, 1350, 1349, 1259, 1260, 1269, 1268
 327, 1341, 1342, 1351, 1350, 1260, 1261, 1270, 1269
 328, 1342, 1343, 1352, 1351, 1261, 1262, 1271, 1270
 329, 1343, 1344, 1353, 1352, 1262, 1263, 1272, 1271
 330, 1344,  464,  465, 1353, 1263,  455,  456, 1272
 331,  384, 1345, 1354,  385,  375, 1264, 1273,  376
 332, 1345, 1346, 1355, 1354, 1264, 1265, 1274, 1273
 333, 1346, 1347, 1356, 1355, 1265, 1266, 1275, 1274
 334, 1347, 1348, 1357, 1356, 1266, 1267, 1276, 1275
 335, 1348, 1349, 1358, 1357, 1267, 1268, 1277, 1276
 336, 1349, 1350, 1359, 1358, 1268, 1269, 1278, 1277
 337, 1350, 1351, 1360, 1359, 1269, 1270, 1279, 1278
 338, 1351, 1352, 1361, 1360, 1270, 1271, 1280, 1279
 339, 1352, 1353, 1362, 1361, 1271, 1272, 1281, 1280
 340, 1353,  465,  466, 1362, 1272,  456,  457, 1281
 341,  385, 1354, 1363,  386,  376, 1273, 1282,  377
 342, 1354, 1355, 1364, 1363, 1273, 1274, 1283, 1282
 343, 1355, 1356, 1365, 1364, 1274, 1275, 1284, 1283
 344, 1356, 1357, 1366, 1365, 1275, 1276, 1285, 1284
 345, 1357, 1358, 1367, 1366, 1276, 1277, 1286, 1285
 346, 1358, 1359, 1368, 1367, 1277, 1278, 1287, 1286
 347, 1359, 1360, 1369, 1368, 1278, 1279, 1288, 1287
 348, 1360, 1361, 1370, 1369, 1279, 1280, 1289, 1288
 349, 1361, 1362, 1371, 1370, 1280, 1281, 1290, 1289
 350, 1362,  466,  467, 1371, 1281,  457,  458, 1290
 351,  386, 1363, 1372,  387,  377, 1282, 1291,  378
 352, 1363, 1364, 1373, 1372, 1282, 1283, 1292, 1291
 353, 1364, 1365, 1374, 1373, 1283, 1284, 1293, 1292
 354, 1365, 1366, 1375, 1374, 1284, 1285, 1294, 1293
 355, 1366, 1367, 1376, 1375, 1285, 1286, 1295, 1294
 356, 1367, 1368, 1377, 1376, 1286, 1287, 1296, 1295
 357, 1368, 1369, 1378, 1377, 1287, 1288, 1297, 1296
 358, 1369, 1370, 1379, 1378, 1288, 1289, 1298, 1297
 359, 1370, 1371, 1380, 1379, 1289, 1290, 1299, 1298
 360, 1371,  467,  468, 1380, 1290,  458,  459, 1299
 361,  387, 1372, 1381,  388,  378, 1291, 1300,  379
 362, 1372, 1373, 1382, 1381, 1291, 1292, 1301, 1300
 363, 1373, 1374, 1383, 1382, 1292, 1293, 1302, 1301
 364, 1374, 1375, 1384, 1383, 1293, 1294, 1303, 1302
 365, 1375, 1376, 1385, 1384, 1294, 1295, 1304, 1303
 366, 1376, 1377, 1386, 1385, 1295, 1296, 1305, 1304
 367, 1377, 1378, 1387, 1386, 1296, 1297, 1306, 1305
 368, 1378, 1379, 1388, 1387, 1297, 1298, 1307, 1306
 369, 1379, 1380, 1389, 1388, 1298, 1299, 1308, 1307
 370, 1380,  468,  469, 1389, 1299,  459,  460, 1308
 371,  388, 1381, 1390,  389,  379, 1300, 1309,  380
 372, 1381, 1382, 1391, 1390, 1300, 1301, 1310, 1309
 373, 1382, 1383, 1392, 1391, 1301, 1302, 1311, 1310
 374, 1383, 1384, 1393, 1392, 1302, 1303, 1312, 1311
 375, 1384, 1385, 1394, 1393, 1303, 1304, 1313, 1312
 376, 1385, 1386, 1395, 1394, 1304, 1305, 1314, 1313
 377, 1386, 1387, 1396, 1395, 1305, 1306, 1315, 1314
 378, 1387, 1388, 1397, 1396, 1306, 1307, 1316, 1315
 379, 1388, 1389, 1398, 1397, 1307, 1308, 1317, 1316
 380, 1389,  469,  470, 1398, 1308,  460,  461, 1317
 381,  389, 1390, 1399,  390,  380, 1309, 1318,  381
 382, 1390, 1391, 1400, 1399, 1309, 1310, 1319, 1318
 383, 1391, 1392, 1401, 1400, 1310, 1311, 1320, 1319
 384, 1392, 1393, 1402, 1401, 1311, 1312, 1321, 1320
 385, 1393, 1394, 1403, 1402, 1312, 1313, 1322, 1321
 386, 1394, 1395, 1404, 1403, 1313, 1314, 1323, 1322
 387, 1395, 1396, 1405, 1404, 1314, 1315, 1324, 1323
 388, 1396, 1397, 1406, 1405, 1315, 1316, 1325, 1324
 389, 1397, 1398, 1407, 1406, 1316, 1317, 1326, 1325
 390, 1398,  470,  471, 1407, 1317,  461,  462, 1326
 391,  390, 1399,  625,   88,  381, 1318,  616,   87
 392, 1399, 1400,  626,  625, 1318, 1319,  617,  616
 393, 1400, 1401,  627,  626, 1319, 1320,  618,  617
 394, 1401, 1402,  628,  627, 1320, 1321,  619,  618
 395, 1402, 1403,  629,  628, 1321, 1322,  620,  619
 396, 1403, 1404,  630,  629, 1322, 1323,  621,  620
 397, 1404, 1405,  631,  630, 1323, 1324,  622,  621
 398, 1405, 1406,  632,  631, 1324, 1325,  623,  622
 399, 1406, 1407,  633,  632, 1325, 1326,  624,  623
 400, 1407,  471,  108,  633, 1326,  462,  109,  624
 401,   98,  553, 1408,  391,   99,  544, 1327,  382
 402,  553,  554, 1409, 1408,  544,  545, 1328, 1327
 403,  554,  555, 1410, 1409,  545,  546, 1329, 1328
 404,  555,  556, 1411, 1410,  546,  547, 1330, 1329
 405,  556,  557, 1412, 1411,  547,  548, 1331, 1330
 406,  557,  558, 1413, 1412,  548,  549, 1332, 1331
 407,  558,  559, 1414, 1413,  549,  550, 1333, 1332
 408,  559,  560, 1415, 1414,  550,  551, 1334, 1333
 409,  560,  561, 1416, 1415,  551,  552, 1335, 1334
 410,  561,  116,  472, 1416,  552,  115,  463, 1335
 411,  391, 1408, 1417,  392,  382, 1327, 1336,  383
 412, 1408, 1409, 1418, 1417, 1327, 1328, 1337, 1336
 413, 1409, 1410, 1419, 1418, 1328, 1329, 1338, 1337
 414, 1410, 1411, 1420, 1419, 1329, 1330, 1339, 1338
 415, 1411, 1412, 1421, 1420, 1330, 1331, 1340, 1339
 416, 1412, 1413, 1422, 1421, 1331, 1332, 1341, 1340
 417, 1413, 1414, 1423, 1422, 1332, 1333, 1342, 1341
 418, 1414, 1415, 1424, 1423, 1333, 1334, 1343, 1342
 419, 1415, 1416, 1425, 1424, 1334, 1335, 1344, 1343
 420, 1416,  472,  473, 1425, 1335,  463,  464, 1344
 421,  392, 1417, 1426,  393,  383, 1336, 1345,  384
 422, 1417, 1418, 1427, 1426, 1336, 1337, 1346, 1345
 423, 1418, 1419, 1428, 1427, 1337, 1338, 1347, 1346
 424, 1419, 1420, 1429, 1428, 1338, 1339, 1348, 1347
 425, 1420, 1421, 1430, 1429, 1339, 1340, 1349, 1348
 426, 1421, 1422, 1431, 1430, 1340, 1341, 1350, 1349
 427, 1422, 1423, 1432, 1431, 1341, 1342, 1351, 1350
 428, 1423, 1424, 1433, 1432, 1342, 1343, 1352, 1351
 429, 1424, 1425, 1434, 1433, 1343, 1344, 1353, 1352
 430, 1425,  473,  474, 1434, 1344,  464,  465, 1353
 431,  393, 1426, 1435,  394,  384, 1345, 1354,  385
 432, 1426, 1427, 1436, 1435, 1345, 1346, 1355, 1354
 433, 1427, 1428, 1437, 1436, 1346, 1347, 1356, 1355
 434, 1428, 1429, 1438, 1437, 1347, 1348, 1357, 1356
 435, 1429, 1430, 1439, 1438, 1348, 1349, 1358, 1357
 436, 1430, 1431, 1440, 1439, 1349, 1350, 1359, 1358
 437, 1431, 1432, 1441, 1440, 1350, 1351, 1360, 1359
 438, 1432, 1433, 1442, 1441, 1351, 1352, 1361, 1360
 439, 1433, 1434, 1443, 1442, 1352, 1353, 1362, 1361
 440, 1434,  474,  475, 1443, 1353,  465,  466, 1362
 441,  394, 1435, 1444,  395,  385, 1354, 1363,  386
 442, 1435, 1436, 1445, 1444, 1354, 1355, 1364, 1363
 443, 1436, 1437, 1446, 1445, 1355, 1356, 1365, 1364
 444, 1437, 1438, 1447, 1446, 1356, 1357, 1366, 1365
 445, 1438, 1439, 1448, 1447, 1357, 1358, 1367, 1366
 446, 1439, 1440, 1449, 1448, 1358, 1359, 1368, 1367
 447, 1440, 1441, 1450, 1449, 1359, 1360, 1369, 1368
 448, 1441, 1442, 1451, 1450, 1360, 1361, 1370, 1369
 449, 1442, 1443, 1452, 1451, 1361, 1362, 1371, 1370
 450, 1443,  475,  476, 1452, 1362,  466,  467, 1371
 451,  395, 1444, 1453,  396,  386, 1363, 1372,  387
 452, 1444, 1445, 1454, 1453, 1363, 1364, 1373, 1372
 453, 1445, 1446, 1455, 1454, 1364, 1365, 1374, 1373
 454, 1446, 1447, 1456, 1455, 1365, 1366, 1375, 1374
 455, 1447, 1448, 1457, 1456, 1366, 1367, 1376, 1375
 456, 1448, 1449, 1458, 1457, 1367, 1368, 1377, 1376
 457, 1449, 1450, 1459, 1458, 1368, 1369, 1378, 1377
 458, 1450, 1451, 1460, 1459, 1369, 1370, 1379, 1378
 459, 1451, 1452, 1461, 1460, 1370, 1371, 1380, 1379
 460, 1452,  476,  477, 1461, 1371,  467,  468, 1380
 461,  396, 1453, 1462,  397,  387, 1372, 1381,  388
 462, 1453, 1454, 1463, 1462, 1372, 1373, 1382, 1381
 463, 1454, 1455, 1464, 1463, 1373, 1374, 1383, 1382
 464, 1455, 1456, 1465, 1464, 1374, 1375, 1384, 1383
 465, 1456, 1457, 1466, 1465, 1375, 1376, 1385, 1384
 466, 1457, 1458, 1467, 1466, 1376, 1377, 1386, 1385
 467, 1458, 1459, 1468, 1467, 1377, 1378, 1387, 1386
 468, 1459, 1460, 1469, 1468, 1378, 1379, 1388, 1387
 469, 1460, 1461, 1470, 1469, 1379, 1380, 1389, 1388
 470, 1461,  477,  478, 1470, 1380,  468,  469, 1389
 471,  397, 1462, 1471,  398,  388, 1381, 1390,  389
 472, 1462, 1463, 1472, 1471, 1381, 1382, 1391, 1390
 473, 1463, 1464, 1473, 1472, 1382, 1383, 1392, 1391
 474, 1464, 1465, 1474, 1473, 1383, 1384, 1393, 1392
 475, 1465, 1466, 1475, 1474, 1384, 1385, 1394, 1393
 476, 1466, 1467, 1476, 1475, 1385, 1386, 1395, 1394
 477, 1467, 1468, 1477, 1476, 1386, 1387, 1396, 1395
 478, 1468, 1469, 1478, 1477, 1387, 1388, 1397, 1396
 479, 1469, 1470, 1479, 1478, 1388, 1389, 1398, 1397
 480, 1470,  478,  479, 1479, 1389,  469,  470, 1398
 481,  398, 1471, 1480,  399,  389, 1390, 1399,  390
 482, 1471, 1472, 1481, 1480, 1390, 1391, 1400, 1399
 483, 1472, 1473, 1482, 1481, 1391, 1392, 1401, 1400
 484, 1473, 1474, 1483, 1482, 1392, 1393, 1402, 1401
 485, 1474, 1475, 1484, 1483, 1393, 1394, 1403, 1402
 486, 1475, 1476, 1485, 1484, 1394, 1395, 1404, 1403
 487, 1476, 1477, 1486, 1485, 1395, 1396, 1405, 1404
 488, 1477, 1478, 1487, 1486, 1396, 1397, 1406, 1405
 489, 1478, 1479, 1488, 1487, 1397, 1398, 1407, 1406
 490, 1479,  479,  480, 1488, 1398,  470,  471, 1407
 491,  399, 1480,  634,   89,  390, 1399,  625,   88
 492, 1480, 1481,  635,  634, 1399, 1400,  626,  625
 493, 1481, 1482,  636,  635, 1400, 1401,  627,  626
 494, 1482, 1483,  637,  636, 1401, 1402,  628,  627
 495, 1483, 1484,  638,  637, 1402, 1403,  629,  628
 496, 1484, 1485,  639,  638, 1403, 1404,  630,  629
 497, 1485, 1486,  640,  639, 1404, 1405,  631,  630
 498, 1486, 1487,  641,  640, 1405, 1406,  632,  631
 499, 1487, 1488,  642,  641, 1406, 1407,  633,  632
 500, 1488,  480,  107,  642, 1407,  471,  108,  633
 501,   97,  562, 1489,  400,   98,  553, 1408,  391
 502,  562,  563, 1490, 1489,  553,  554, 1409, 1408
 503,  563,  564, 1491, 1490,  554,  555, 1410, 1409
 504,  564,  565, 1492, 1491,  555,  556, 1411, 1410
 505,  565,  566, 1493, 1492,  556,  557, 1412, 1411
 506,  566,  567, 1494, 1493,  557,  558, 1413, 1412
 507,  567,  568, 1495, 1494,  558,  559, 1414, 1413
 508,  568,  569, 1496, 1495,  559,  560, 1415, 1414
 509,  569,  570, 1497, 1496,  560,  561, 1416, 1415
 510,  570,  117,  481, 1497,  561,  116,  472, 1416
 511,  400, 1489, 1498,  401,  391, 1408, 1417,  392
 512, 1489, 1490, 1499, 1498, 1408, 1409, 1418, 1417
 513, 1490, 1491, 1500, 1499, 1409, 1410, 1419, 1418
 514, 1491, 1492, 1501, 1500, 1410, 1411, 1420, 1419
 515, 1492, 1493, 1502, 1501, 1411, 1412, 1421, 1420
 516, 1493, 1494, 1503, 1502, 1412, 1413, 1422, 1421
 517, 1494, 1495, 1504, 1503, 1413, 1414, 1423, 1422
 518, 1495, 1496, 1505, 1504, 1414, 1415, 1424, 1423
 519, 1496, 1497, 1506, 1505, 1415, 1416, 1425, 1424
 520, 1497,  481,  482, 1506, 1416,  472,  473, 1425
 521,  401, 1498, 1507,  402,  392, 1417, 1426,  393
 522, 1498, 1499, 1508, 1507, 1417, 1418, 1427, 1426
 523, 1499, 1500, 1509, 1508, 1418, 1419, 1428, 1427
 524, 1500, 1501, 1510, 1509, 1419, 1420, 1429, 1428
 525, 1501, 1502, 1511, 1510, 1420, 1421, 1430, 1429
 526, 1502, 1503, 1512, 1511, 1421, 1422, 1431, 1430
 527, 1503, 1504, 1513, 1512, 1422, 1423, 1432, 1431
 528, 1504, 1505, 1514, 1513, 1423, 1424, 1433, 1432
 529, 1505, 1506, 1515, 1514, 1424, 1425, 1434, 1433
 530, 1506,  482,  483, 1515, 1425,  473,  474, 1434
 531,  402, 1507, 1516,  403,  393, 1426, 1435,  394
 532, 1507, 1508, 1517, 1516, 1426, 1427, 1436, 1435
 533, 1508, 1509, 1518, 1517, 1427, 1428, 1437, 1436
 534, 1509, 1510, 1519, 1518, 1428, 1429, 1438, 1437
 535, 1510, 1511, 1520, 1519, 1429, 1430, 1439, 1438
 536, 1511, 1512, 1521, 1520, 1430, 1431, 1440, 1439
 537, 1512, 1513, 1522, 1521, 1431, 1432, 1441, 1440
 538, 1513, 1514, 1523, 1522, 1432, 1433, 1442, 1441
 539, 1514, 1515, 1524, 1523, 1433, 1434, 1443, 1442
 540, 1515,  483,  484, 1524, 1434,  474,  475, 1443
 541,  403, 1516, 1525,  404,  394, 1435, 1444,  395
 542, 1516, 1517, 1526, 1525, 1435, 1436, 1445, 1444
 543, 1517, 1518, 1527, 1526, 1436, 1437, 1446, 1445
 544, 1518, 1519, 1528, 1527, 1437, 1438, 1447, 1446
 545, 1519, 1520, 1529, 1528, 1438, 1439, 1448, 1447
 546, 1520, 1521, 1530, 1529, 1439, 1440, 1449, 1448
 547, 1521, 1522, 1531, 1530, 1440, 1441, 1450, 1449
 548, 1522, 1523, 1532, 1531, 1441, 1442, 1451, 1450
 549, 1523, 1524, 1533, 1532, 1442, 1443, 1452, 1451
 550, 1524,  484,  485, 1533, 1443,  475,  476, 1452
 551,  404, 1525, 1534,  405,  395, 1444, 1453,  396
 552, 1525, 1526, 1535, 1534, 1444, 1445, 1454, 1453
 553, 1526, 1527, 1536, 1535, 1445, 1446, 1455, 1454
 554, 1527, 1528, 1537, 1536, 1446, 1447, 1456, 1455
 555, 1528, 1529, 1538, 1537, 1447, 1448, 1457, 1456
 556, 1529, 1530, 1539, 1538, 1448, 1449, 1458, 1457
 557, 1530, 1531, 1540, 1539, 1449, 1450, 1459, 1458
 558, 1531, 1532, 1541, 1540, 1450, 1451, 1460, 1459
 559, 1532, 1533, 1542, 1541, 1451, 1452, 1461, 1460
 560, 1533,  485,  486, 1542, 1452,  476,  477, 1461
 561,  405, 1534, 1543,  406,  396, 1453, 1462,  397
 562, 1534, 1535, 1544, 1543, 1453, 1454, 1463, 1462
 563, 1535, 1536, 1545, 1544, 1454, 1455, 1464, 1463
 564, 1536, 1537, 1546, 1545, 1455, 1456, 1465, 1464
 565, 1537, 1538, 1547, 1546, 1456, 1457, 1466, 1465
 566, 1538, 1539, 1548, 1547, 1457, 1458, 1467, 1466
 567, 1539, 1540, 1549, 1548, 1458, 1459, 1468, 1467
 568, 1540, 1541, 1550, 1549, 1459, 1460, 1469, 1468
 569, 1541, 1542, 1551, 1550, 1460, 1461, 1470, 1469
 570, 1542,  486,  487, 1551, 1461,  477,  478, 1470
 571,  406, 1543, 1552,  407,  397, 1462, 1471,  398
 572, 1543, 1544, 1553, 1552, 1462, 1463, 1472, 1471
 573, 1544, 1545, 1554, 1553, 1463, 1464, 1473, 1472
 574, 1545, 1546, 1555, 1554, 1464, 1465, 1474, 1473
 575, 1546, 1547, 1556, 1555, 1465, 1466, 1475, 1474
 576, 1547, 1548, 1557, 1556, 1466, 1467, 1476, 1475
 577, 1548, 1549, 1558, 1557, 1467, 1468, 1477, 1476
 578, 1549, 1550, 1559, 1558, 1468, 1469, 1478, 1477
 579, 1550, 1551, 1560, 1559, 1469, 1470, 1479, 1478
 580, 1551,  487,  488, 1560, 1470,  478,  479, 1479
 581,  407, 1552, 1561,  408,  398, 1471, 1480,  399
 582, 1552, 1553, 1562, 1561, 1471, 1472, 1481, 1480
 583, 1553, 1554, 1563, 1562, 1472, 1473, 1482, 1481
 584, 1554, 1555, 1564, 1563, 1473, 1474, 1483, 1482
 585, 1555, 1556, 1565, 1564, 1474, 1475, 1484, 1483
 586, 1556, 1557, 1566, 1565, 1475, 1476, 1485, 1484
 587, 1557, 1558, 1567, 1566, 1476, 1477, 1486, 1485
 588, 1558, 1559, 1568, 1567, 1477, 1478, 1487, 1486
 589, 1559, 1560, 1569, 1568, 1478, 1479, 1488, 1487
 590, 1560,  488,  489, 1569, 1479,  479,  480, 1488
 591,  408, 1561,  643,   90,  399, 1480,  634,   89
 592, 1561, 1562,  644,  643, 1480, 1481,  635,  634
 593, 1562, 1563,  645,  644, 1481, 1482,  636,  635
 594, 1563, 1564,  646,  645, 1482, 1483,  637,  636
 595, 1564, 1565,  647,  646, 1483, 1484,  638,  637
 596, 1565, 1566,  648,  647, 1484, 1485,  639,  638
 597, 1566, 1567,  649,  648, 1485, 1486,  640,  639
 598, 1567, 1568,  650,  649, 1486, 1487,  641,  640
 599, 1568, 1569,  651,  650, 1487, 1488,  642,  641
 600, 1569,  489,  106,  651, 1488,  480,  107,  642
 601,   96,  571, 1570,  409,   97,  562, 1489,  400
 602,  571,  572, 1571, 1570,  562,  563, 1490, 1489
 603,  572,  573, 1572, 1571,  563,  564, 1491, 1490
 604,  573,  574, 1573, 1572,  564,  565, 1492, 1491
 605,  574,  575, 1574, 1573,  565,  566, 1493, 1492
 606,  575,  576, 1575, 1574,  566,  567, 1494, 1493
 607,  576,  577, 1576, 1575,  567,  568, 1495, 1494
 608,  577,  578, 1577, 1576,  568,  569, 1496, 1495
 609,  578,  579, 1578, 1577,  569,  570, 1497, 1496
 610,  579,  118,  490, 1578,  570,  117,  481, 1497
 611,  409, 1570, 1579,  410,  400, 1489, 1498,  401
 612, 1570, 1571, 1580, 1579, 1489, 1490, 1499, 1498
 613, 1571, 1572, 1581, 1580, 1490, 1491, 1500, 1499
 614, 1572, 1573, 1582, 1581, 1491, 1492, 1501, 1500
 615, 1573, 1574, 1583, 1582, 1492, 1493, 1502, 1501
 616, 1574, 1575, 1584, 1583, 1493, 1494, 1503, 1502
 617, 1575, 1576, 1585, 1584, 1494, 1495, 1504, 1503
 618, 1576, 1577, 1586, 1585, 1495, 1496, 1505, 1504
 619, 1577, 1578, 1587, 1586, 1496, 1497, 1506, 1505
 620, 1578,  490,  491, 1587, 1497,  481,  482, 1506
 621,  410, 1579, 1588,  411,  401, 1498, 1507,  402
 622, 1579, 1580, 1589, 1588, 1498, 1499, 1508, 1507
 623, 1580, 1581, 1590, 1589, 1499, 1500, 1509, 1508
 624, 1581, 1582, 1591, 1590, 1500, 1501, 1510, 1509
 625, 1582, 1583, 1592, 1591, 1501, 1502, 1511, 1510
 626, 1583, 1584, 1593, 1592, 1502, 1503, 1512, 1511
 627, 1584, 1585, 1594, 1593, 1503, 1504, 1513, 1512
 628, 1585, 1586, 1595, 1594, 1504, 1505, 1514, 1513
 629, 1586, 1587, 1596, 1595, 1505, 1506, 1515, 1514
 630, 1587,  491,  492, 1596, 1506,  482,  483, 1515
 631,  411, 1588, 1597,  412,  402, 1507, 1516,  403
 632, 1588, 1589, 1598, 1597, 1507, 1508, 1517, 1516
 633, 1589, 1590, 1599, 1598, 1508, 1509, 1518, 1517
 634, 1590, 1591, 1600, 1599, 1509, 1510, 1519, 1518
 635, 1591, 1592, 1601, 1600, 1510, 1511, 1520, 1519
 636, 1592, 1593, 1602, 1601, 1511, 1512, 1521, 1520
 637, 1593, 1594, 1603, 1602, 1512, 1513, 1522, 1521
 638, 1594, 1595, 1604, 1603, 1513, 1514, 1523, 1522
 639, 1595, 1596, 1605, 1604, 1514, 1515, 1524, 1523
 640, 1596,  492,  493, 1605, 1515,  483,  484, 1524
 641,  412, 1597, 1606,  413,  403, 1516, 1525,  404
 642, 1597, 1598, 1607, 1606, 1516, 1517, 1526, 1525
 643, 1598, 1599, 1608, 1607, 1517, 1518, 1527, 1526
 644, 1599, 1600, 1609, 1608, 1518, 1519, 1528, 1527
 645, 1600, 1601, 1610, 1609, 1519, 1520, 1529, 1528
 646, 1601, 1602, 1611, 1610, 1520, 1521, 1530, 1529
 647, 1602, 1603, 1612, 1611, 1521, 1522, 1531, 1530
 648, 1603, 1604, 1613, 1612, 1522, 1523, 1532, 1531
 649, 1604, 1605, 1614, 1613, 1523, 1524, 1533, 1532
 650, 1605,  493,  494, 1614, 1524,  484,  485, 1533
 651,  413, 1606, 1615,  414,  404, 1525, 1534,  405
 652, 1606, 1607, 1616, 1615, 1525, 1526, 1535, 1534
 653, 1607, 1608, 1617, 1616, 1526, 1527, 1536, 1535
 654, 1608, 1609, 1618, 1617, 1527, 1528, 1537, 1536
 655, 1609, 1610, 1619, 1618, 1528, 1529, 1538, 1537
 656, 1610, 1611, 1620, 1619, 1529, 1530, 1539, 1538
 657, 1611, 1612, 1621, 1620, 1530, 1531, 1540, 1539
 658, 1612, 1613, 1622, 1621, 1531, 1532, 1541, 1540
 659, 1613, 1614, 1623, 1622, 1532, 1533, 1542, 1541
 660, 1614,  494,  495, 1623, 1533,  485,  486, 1542
 661,  414, 1615, 1624,  415,  405, 1534, 1543,  406
 662, 1615, 1616, 1625, 1624, 1534, 1535, 1544, 1543
 663, 1616, 1617, 1626, 1625, 1535, 1536, 1545, 1544
 664, 1617, 1618, 1627, 1626, 1536, 1537, 1546, 1545
 665, 1618, 1619, 1628, 1627, 1537, 1538, 1547, 1546
 666, 1619, 1620, 1629, 1628, 1538, 1539, 1548, 1547
 667, 1620, 1621, 1630, 1629, 1539, 1540, 1549, 1548
 668, 1621, 1622, 1631, 1630, 1540, 1541, 1550, 1549
 669, 1622, 1623, 1632, 1631, 1541, 1542, 1551, 1550
 670, 1623,  495,  496, 1632, 1542,  486,  487, 1551
 671,  415, 1624, 1633,  416,  406, 1543, 1552,  407
 672, 1624, 1625, 1634, 1633, 1543, 1544, 1553, 1552
 673, 1625, 1626, 1635, 1634, 1544, 1545, 1554, 1553
 674, 1626, 1627, 1636, 1635, 1545, 1546, 1555, 1554
 675, 1627, 1628, 1637, 1636, 1546, 1547, 1556, 1555
 676, 1628, 1629, 1638, 1637, 1547, 1548, 1557, 1556
 677, 1629, 1630, 1639, 1638, 1548, 1549, 1558, 1557
 678, 1630, 1631, 1640, 1639, 1549, 1550, 1559, 1558
 679, 1631, 1632, 1641, 1640, 1550, 1551, 1560, 1559
 680, 1632,  496,  497, 1641, 1551,  487,  488, 1560
 681,  416, 1633, 1642,  417,  407, 1552, 1561,  408
 682, 1633, 1634, 1643, 1642, 1552, 1553, 1562, 1561
 683, 1634, 1635, 1644, 1643, 1553, 1554, 1563, 1562
 684, 1635, 1636, 1645, 1644, 1554, 1555, 1564, 1563
 685, 1636, 1637, 1646, 1645, 1555, 1556, 1565, 1564
 686, 1637, 1638, 1647, 1646, 1556, 1557, 1566, 1565
 687, 1638, 1639, 1648, 1647, 1557, 1558, 1567, 1566
 688, 1639, 1640, 1649, 1648, 1558, 1559, 1568, 1567
 689, 1640, 1641, 1650, 1649, 1559, 1560, 1569, 1568
 690, 1641,  497,  498, 1650, 1560,  488,  489, 1569
 691,  417, 1642,  652,   91,  408, 1561,  643,   90
 692, 1642, 1643,  653,  652, 1561, 1562,  644,  643
 693, 1643, 1644,  654,  653, 1562, 1563,  645,  644
 694, 1644, 1645,  655,  654, 1563, 1564,  646,  645
 695, 1645, 1646,  656,  655, 1564, 1565,  647,  646
 696, 1646, 1647,  657,  656, 1565, 1566,  648,  647
 697, 1647, 1648,  658,  657, 1566, 1567,  649,  648
 698, 1648, 1649,  659,  658, 1567, 1568,  650,  649
 699, 1649, 1650,  660,  659, 1568, 1569,  651,  650
 700, 1650,  498,  105,  660, 1569,  489,  106,  651
 701,   95,  580, 1651,  418,   96,  571, 1570,  409
 702,  580,  581, 1652, 1651,  571,  572, 1571, 1570
 703,  581,  582, 1653, 1652,  572,  573, 1572, 1571
 704,  582,  583, 1654, 1653,  573,  574, 1573, 1572
 705,  583,  584, 1655, 1654,  574,  575, 1574, 1573
 706,  584,  585, 1656, 1655,  575,  576, 1575, 1574
 707,  585,  586, 1657, 1656,  576,  577, 1576, 1575
 708,  586,  587, 1658, 1657,  577,  578, 1577, 1576
 709,  587,  588, 1659, 1658,  578,  579, 1578, 1577
 710,  588,  119,  499, 1659,  579,  118,  490, 1578
 711,  418, 1651, 1660,  419,  409, 1570, 1579,  410
 712, 1651, 1652, 1661, 1660, 1570, 1571, 1580, 1579
 713, 1652, 1653, 1662, 1661, 1571, 1572, 1581, 1580
 714, 1653, 1654, 1663, 1662, 1572, 1573, 1582, 1581
 715, 1654, 1655, 1664, 1663, 1573, 1574, 1583, 1582
 716, 1655, 1656, 1665, 1664, 1574, 1575, 1584, 1583
 717, 1656, 1657, 1666, 1665, 1575, 1576, 1585, 1584
 718, 1657, 1658, 1667, 1666, 1576, 1577, 1586, 1585
 719, 1658, 1659, 1668, 1667, 1577, 1578, 1587, 1586
 720, 1659,  499,  500, 1668, 1578,  490,  491, 1587
 721,  419, 1660, 1669,  420,  410, 1579, 1588,  411
 722, 1660, 1661, 1670, 1669, 1579, 1580, 1589, 1588
 723, 1661, 1662, 1671, 1670, 1580, 1581, 1590, 1589
 724, 1662, 1663, 1672, 1671, 1581, 1582, 1591, 1590
 725, 1663, 1664, 1673, 1672, 1582, 1583, 1592, 1591
 726, 1664, 1665, 1674, 1673, 1583, 1584, 1593, 1592
 727, 1665, 1666, 1675, 1674, 1584, 1585, 1594, 1593
 728, 1666, 1667, 1676, 1675, 1585, 1586, 1595, 1594
 729, 1667, 1668, 1677, 1676, 1586, 1587, 1596, 1595
 730, 1668,  500,  501, 1677, 1587,  491,  492, 1596
 731,  420, 1669, 1678,  421,  411, 1588, 1597,  412
 732, 1669, 1670, 1679, 1678, 1588, 1589, 1598, 1597
 733, 1670, 1671, 1680, 1679, 1589, 1590, 1599, 1598
 734, 1671, 1672, 1681, 1680, 1590, 1591, 1600, 1599
 735, 1672, 1673, 1682, 1681, 1591, 1592, 1601, 1600
 736, 1673, 1674, 1683, 1682, 1592, 1593, 1602, 1601
 737, 1674, 1675, 1684, 1683, 1593, 1594, 1603, 1602
 738, 1675, 1676, 1685, 1684, 1594, 1595, 1604, 1603
 739, 1676, 1677, 1686, 1685, 1595, 1596, 1605, 1604
 740, 1677,  501,  502, 1686, 1596,  492,  493, 1605
 741,  421, 1678, 1687,  422,  412, 1597, 1606,  413
 742, 1678, 1679, 1688, 1687, 1597, 1598, 1607, 1606
 743, 1679, 1680, 1689, 1688, 1598, 1599, 1608, 1607
 744, 1680, 1681, 1690, 1689, 1599, 1600, 1609, 1608
 745, 1681, 1682, 1691, 1690, 1600, 1601, 1610, 1609
 746, 1682, 1683, 1692, 1691, 1601, 1602, 1611, 1610
 747, 1683, 1684, 1693, 1692, 1602, 1603, 1612, 1611
 748, 1684, 1685, 1694, 1693, 1603, 1604, 1613, 1612
 749, 1685, 1686, 1695, 1694, 1604, 1605, 1614, 1613
 750, 1686,  502,  503, 1695, 1605,  493,  494, 1614
 751,  422, 1687, 1696,  423,  413, 1606, 1615,  414
 752, 1687, 1688, 1697, 1696, 1606, 1607, 1616, 1615
 753, 1688, 1689, 1698, 1697, 1607, 1608, 1617, 1616
 754, 1689, 1690, 1699, 1698, 1608, 1609, 1618, 1617
 755, 1690, 1691, 1700, 1699, 1609, 1610, 1619, 1618
 756, 1691, 1692, 1701, 1700, 1610, 1611, 1620, 1619
 757, 1692, 1693, 1702, 1701, 1611, 1612, 1621, 1620
 758, 1693, 1694, 1703, 1702, 1612, 1613, 1622, 1621
 759, 1694, 1695, 1704, 1703, 1613, 1614, 1623, 1622
 760, 1695,  503,  504, 1704, 1614,  494,  495, 1623
 761,  423, 1696, 1705,  424,  414, 1615, 1624,  415
 762, 1696, 1697, 1706, 1705, 1615, 1616, 1625, 1624
 763, 1697, 1698, 1707, 1706, 1616, 1617, 1626, 1625
 764, 1698, 1699, 1708, 1707, 1617, 1618, 1627, 1626
 765, 1699, 1700, 1709, 1708, 1618, 1619, 1628, 1627
 766, 1700, 1701, 1710, 1709, 1619, 1620, 1629, 1628
 767, 1701, 1702, 1711, 1710, 1620, 1621, 1630, 1629
 768, 1702, 1703, 1712, 1711, 1621, 1622, 1631, 1630
 769, 1703, 1704, 1713, 1712, 1622, 1623, 1632, 1631
 770, 1704,  504,  505, 1713, 1623,  495,  496, 1632
 771,  424, 1705, 1714,  425,  415, 1624, 1633,  416
 772, 1705, 1706, 1715, 1714, 1624, 1625, 1634, 1633
 773, 1706, 1707, 1716, 1715, 1625, 1626, 1635, 1634
 774, 1707, 1708, 1717, 1716, 1626, 1627, 1636, 1635
 775, 1708, 1709, 1718, 1717, 1627, 1628, 1637, 1636
 776, 1709, 1710, 1719, 1718, 1628, 1629, 1638, 1637
 777, 1710, 1711, 1720, 1719, 1629, 1630, 1639, 1638
 778, 1711, 1712, 1721, 1720, 1630, 1631, 1640, 1639
 779, 1712, 1713, 1722, 1721, 1631, 1632, 1641, 1640
 780, 1713,  505,  506, 1722, 1632,  496,  497, 1641
 781,  425, 1714, 1723,  426,  416, 1633, 1642,  417
 782, 1714, 1715, 1724, 1723, 1633, 1634, 1643, 1642
 783, 1715, 1716, 1725, 1724, 1634, 1635, 1644, 1643
 784, 1716, 1717, 1726, 1725, 1635, 1636, 1645, 1644
 785, 1717, 1718, 1727, 1726, 1636, 1637, 1646, 1645
 786, 1718, 1719, 1728, 1727, 1637, 1638, 1647, 1646
 787, 1719, 1720, 1729, 1728, 1638, 1639, 1648, 1647
 788, 1720, 1721, 1730, 1729, 1639, 1640, 1649, 1648
 789, 1721, 1722, 1731, 1730, 1640, 1641, 1650, 1649
 790, 1722,  506,  507, 1731, 1641,  497,  498, 1650
 791,  426, 1723,  661,   92,  417, 1642,  652,   91
 792, 1723, 1724,  662,  661, 1642, 1643,  653,  652
 793, 1724, 1725,  663,  662, 1643, 1644,  654,  653
 794, 1725, 1726,  664,  663, 1644, 1645,  655,  654
 795, 1726, 1727,  665,  664, 1645, 1646,  656,  655
 796, 1727, 1728,  666,  665, 1646, 1647,  657,  656
 797, 1728, 1729,  667,  666, 1647, 1648,  658,  657
 798, 1729, 1730,  668,  667, 1648, 1649,  659,  658
 799, 1730, 1731,  669,  668, 1649, 1650,  660,  659
 800, 1731,  507,  104,  669, 1650,  498,  105,  660
 801,   94,  589, 1732,  427,   95,  580, 1651,  418
 802,  589,  590, 1733, 1732,  580,  581, 1652, 1651
 803,  590,  591, 1734, 1733,  581,  582, 1653, 1652
 804,  591,  592, 1735, 1734,  582,  583, 1654, 1653
 805,  592,  593, 1736, 1735,  583,  584, 1655, 1654
 806,  593,  594, 1737, 1736,  584,  585, 1656, 1655
 807,  594,  595, 1738, 1737,  585,  586, 1657, 1656
 808,  595,  596, 1739, 1738,  586,  587, 1658, 1657
 809,  596,  597, 1740, 1739,  587,  588, 1659, 1658
 810,  597,  120,  508, 1740,  588,  119,  499, 1659
 811,  427, 1732, 1741,  428,  418, 1651, 1660,  419
 812, 1732, 1733, 1742, 1741, 1651, 1652, 1661, 1660
 813, 1733, 1734, 1743, 1742, 1652, 1653, 1662, 1661
 814, 1734, 1735, 1744, 1743, 1653, 1654, 1663, 1662
 815, 1735, 1736, 1745, 1744, 1654, 1655, 1664, 1663
 816, 1736, 1737, 1746, 1745, 1655, 1656, 1665, 1664
 817, 1737, 1738, 1747, 1746, 1656, 1657, 1666, 1665
 818, 1738, 1739, 1748, 1747, 1657, 1658, 1667, 1666
 819, 1739, 1740, 1749, 1748, 1658, 1659, 1668, 1667
 820, 1740,  508,  509, 1749, 1659,  499,  500, 1668
 821,  428, 1741, 1750,  429,  419, 1660, 1669,  420
 822, 1741, 1742, 1751, 1750, 1660, 1661, 1670, 1669
 823, 1742, 1743, 1752, 1751, 1661, 1662, 1671, 1670
 824, 1743, 1744, 1753, 1752, 1662, 1663, 1672, 1671
 825, 1744, 1745, 1754, 1753, 1663, 1664, 1673, 1672
 826, 1745, 1746, 1755, 1754, 1664, 1665, 1674, 1673
 827, 1746, 1747, 1756, 1755, 1665, 1666, 1675, 1674
 828, 1747, 1748, 1757, 1756, 1666, 1667, 1676, 1675
 829, 1748, 1749, 1758, 1757, 1667, 1668, 1677, 1676
 830, 1749,  509,  510, 1758, 1668,  500,  501, 1677
 831,  429, 1750, 1759,  430,  420, 1669, 1678,  421
 832, 1750, 1751, 1760, 1759, 1669, 1670, 1679, 1678
 833, 1751, 1752, 1761, 1760, 1670, 1671, 1680, 1679
 834, 1752, 1753, 1762, 1761, 1671, 1672, 1681, 1680
 835, 1753, 1754, 1763, 1762, 1672, 1673, 1682, 1681
 836, 1754, 1755, 1764, 1763, 1673, 1674, 1683, 1682
 837, 1755, 1756, 1765, 1764, 1674, 1675, 1684, 1683
 838, 1756, 1757, 1766, 1765, 1675, 1676, 1685, 1684
 839, 1757, 1758, 1767, 1766, 1676, 1677, 1686, 1685
 840, 1758,  510,  511, 1767, 1677,  501,  502, 1686
 841,  430, 1759, 1768,  431,  421, 1678, 1687,  422
 842, 1759, 1760, 1769, 1768, 1678, 1679, 1688, 1687
 843, 1760, 1761, 1770, 1769, 1679, 1680, 1689, 1688
 844, 1761, 1762, 1771, 1770, 1680, 1681, 1690, 1689
 845, 1762, 1763, 1772, 1771, 1681, 1682, 1691, 1690
 846, 1763, 1764, 1773, 1772, 1682, 1683, 1692, 1691
 847, 1764, 1765, 1774, 1773, 1683, 1684, 1693, 1692
 848, 1765, 1766, 1775, 1774, 1684, 1685, 1694, 1693
 849, 1766, 1767, 1776, 1775, 1685, 1686, 1695, 1694
 850, 1767,  511,  512, 1776, 1686,  502,  503, 1695
 851,  431, 1768, 1777,  432,  422, 1687, 1696,  423
 852, 1768, 1769, 1778, 1777, 1687, 1688, 1697, 1696
 853, 1769, 1770, 1779, 1778, 1688, 1689, 1698, 1697
 854, 1770, 1771, 1780, 1779, 1689, 1690, 1699, 1698
 855, 1771, 1772, 1781, 1780, 1690, 1691, 1700, 1699
 856, 1772, 1773, 1782, 1781, 1691, 1692, 1701, 1700
 857, 1773, 1774, 1783, 1782, 1692, 1693, 1702, 1701
 858, 1774, 1775, 1784, 1783, 1693, 1694, 1703, 1702
 859, 1775, 1776, 1785, 1784, 1694, 1695, 1704, 1703
 860, 1776,  512,  513, 1785, 1695,  503,  504, 1704
 861,  432, 1777, 1786,  433,  423, 1696, 1705,  424
 862, 1777, 1778, 1787, 1786, 1696, 1697, 1706, 1705
 863, 1778, 1779, 1788, 1787, 1697, 1698, 1707, 1706
 864, 1779, 1780, 1789, 1788, 1698, 1699, 1708, 1707
 865, 1780, 1781, 1790, 1789, 1699, 1700, 1709, 1708
 866, 1781, 1782, 1791, 1790, 1700, 1701, 1710, 1709
 867, 1782, 1783, 1792, 1791, 1701, 1702, 1711, 1710
 868, 1783, 1784, 1793, 1792, 1702, 1703, 1712, 1711
 869, 1784, 1785, 1794, 1793, 1703, 1704, 1713, 1712
 870, 1785,  513,  514, 1794, 1704,  504,  505, 1713
 871,  433, 1786, 1795,  434,  424, 1705, 1714,  425
 872, 1786, 1787, 1796, 1795, 1705, 1706, 1715, 1714
 873, 1787, 1788, 1797, 1796, 1706, 1707, 1716, 1715
 874, 1788, 1789, 1798, 1797, 1707, 1708, 1717, 1716
 875, 1789, 1790, 1799, 1798, 1708, 1709, 1718, 1717
 876, 1790, 1791, 1800, 1799, 1709, 1710, 1719, 1718
 877, 1791, 1792, 1801, 1800, 1710, 1711, 1720, 1719
 878, 1792, 1793, 1802, 1801, 1711, 1712, 1721, 1720
 879, 1793, 1794, 1803, 1802, 1712, 1713, 1722, 1721
 880, 1794,  514,  515, 1803, 1713,  505,  506, 1722
 881,  434, 1795, 1804,  435,  425, 1714, 1723,  426
 882, 1795, 1796, 1805, 1804, 1714, 1715, 1724, 1723
 883, 1796, 1797, 1806, 1805, 1715, 1716, 1725, 1724
 884, 1797, 1798, 1807, 1806, 1716, 1717, 1726, 1725
 885, 1798, 1799, 1808, 1807, 1717, 1718, 1727, 1726
 886, 1799, 1800, 1809, 1808, 1718, 1719, 1728, 1727
 887, 1800, 1801, 1810, 1809, 1719, 1720, 1729, 1728
 888, 1801, 1802, 1811, 1810, 1720, 1721, 1730, 1729
 889, 1802, 1803, 1812, 1811, 1721, 1722, 1731, 1730
 890, 1803,  515,  516, 1812, 1722,  506,  507, 1731
 891,  435, 1804,  670,   93,  426, 1723,  661,   92
 892, 1804, 1805,  671,  670, 1723, 1724,  662,  661
 893, 1805, 1806,  672,  671, 1724, 1725,  663,  662
 894, 1806, 1807,  673,  672, 1725, 1726,  664,  663
 895, 1807, 1808,  674,  673, 1726, 1727,  665,  664
 896, 1808, 1809,  675,  674, 1727, 1728,  666,  665
 897, 1809, 1810,  676,  675, 1728, 1729,  667,  666
 898, 1810, 1811,  677,  676, 1729, 1730,  668,  667
 899, 1811, 1812,  678,  677, 1730, 1731,  669,  668
 900, 1812,  516,  103,  678, 1731,  507,  104,  669
 901,    8,   57,  274,   76,   94,  589, 1732,  427
 902,   57,   56,  275,  274,  589,  590, 1733, 1732
 903,   56,   55,  276,  275,  590,  591, 1734, 1733
 904,   55,   54,  277,  276,  591,  592, 1735, 1734
 905,   54,   53,  278,  277,  592,  593, 1736, 1735
 906,   53,   52,  279,  278,  593,  594, 1737, 1736
 907,   52,   51,  280,  279,  594,  595, 1738, 1737
 908,   51,   50,  281,  280,  595,  596, 1739, 1738
 909,   50,   49,  282,  281,  596,  597, 1740, 1739
 910,   49,    5,   66,  282,  597,  120,  508, 1740
 911,   76,  274,  283,   77,  427, 1732, 1741,  428
 912,  274,  275,  284,  283, 1732, 1733, 1742, 1741
 913,  275,  276,  285,  284, 1733, 1734, 1743, 1742
 914,  276,  277,  286,  285, 1734, 1735, 1744, 1743
 915,  277,  278,  287,  286, 1735, 1736, 1745, 1744
 916,  278,  279,  288,  287, 1736, 1737, 1746, 1745
 917,  279,  280,  289,  288, 1737, 1738, 1747, 1746
 918,  280,  281,  290,  289, 1738, 1739, 1748, 1747
 919,  281,  282,  291,  290, 1739, 1740, 1749, 1748
 920,  282,   66,   65,  291, 1740,  508,  509, 1749
 921,   77,  283,  292,   78,  428, 1741, 1750,  429
 922,  283,  284,  293,  292, 1741, 1742, 1751, 1750
 923,  284,  285,  294,  293, 1742, 1743, 1752, 1751
 924,  285,  286,  295,  294, 1743, 1744, 1753, 1752
 925,  286,  287,  296,  295, 1744, 1745, 1754, 1753
 926,  287,  288,  297,  296, 1745, 1746, 1755, 1754
 927,  288,  289,  298,  297, 1746, 1747, 1756, 1755
 928,  289,  290,  299,  298, 1747, 1748, 1757, 1756
 929,  290,  291,  300,  299, 1748, 1749, 1758, 1757
 930,  291,   65,   64,  300, 1749,  509,  510, 1758
 931,   78,  292,  301,   79,  429, 1750, 1759,  430
 932,  292,  293,  302,  301, 1750, 1751, 1760, 1759
 933,  293,  294,  303,  302, 1751, 1752, 1761, 1760
 934,  294,  295,  304,  303, 1752, 1753, 1762, 1761
 935,  295,  296,  305,  304, 1753, 1754, 1763, 1762
 936,  296,  297,  306,  305, 1754, 1755, 1764, 1763
 937,  297,  298,  307,  306, 1755, 1756, 1765, 1764
 938,  298,  299,  308,  307, 1756, 1757, 1766, 1765
 939,  299,  300,  309,  308, 1757, 1758, 1767, 1766
 940,  300,   64,   63,  309, 1758,  510,  511, 1767
 941,   79,  301,  310,   80,  430, 1759, 1768,  431
 942,  301,  302,  311,  310, 1759, 1760, 1769, 1768
 943,  302,  303,  312,  311, 1760, 1761, 1770, 1769
 944,  303,  304,  313,  312, 1761, 1762, 1771, 1770
 945,  304,  305,  314,  313, 1762, 1763, 1772, 1771
 946,  305,  306,  315,  314, 1763, 1764, 1773, 1772
 947,  306,  307,  316,  315, 1764, 1765, 1774, 1773
 948,  307,  308,  317,  316, 1765, 1766, 1775, 1774
 949,  308,  309,  318,  317, 1766, 1767, 1776, 1775
 950,  309,   63,   62,  318, 1767,  511,  512, 1776
 951,   80,  310,  319,   81,  431, 1768, 1777,  432
 952,  310,  311,  320,  319, 1768, 1769, 1778, 1777
 953,  311,  312,  321,  320, 1769, 1770, 1779, 1778
 954,  312,  313,  322,  321, 1770, 1771, 1780, 1779
 955,  313,  314,  323,  322, 1771, 1772, 1781, 1780
 956,  314,  315,  324,  323, 1772, 1773, 1782, 1781
 957,  315,  316,  325,  324, 1773, 1774, 1783, 1782
 958,  316,  317,  326,  325, 1774, 1775, 1784, 1783
 959,  317,  318,  327,  326, 1775, 1776, 1785, 1784
 960,  318,   62,   61,  327, 1776,  512,  513, 1785
 961,   81,  319,  328,   82,  432, 1777, 1786,  433
 962,  319,  320,  329,  328, 1777, 1778, 1787, 1786
 963,  320,  321,  330,  329, 1778, 1779, 1788, 1787
 964,  321,  322,  331,  330, 1779, 1780, 1789, 1788
 965,  322,  323,  332,  331, 1780, 1781, 1790, 1789
 966,  323,  324,  333,  332, 1781, 1782, 1791, 1790
 967,  324,  325,  334,  333, 1782, 1783, 1792, 1791
 968,  325,  326,  335,  334, 1783, 1784, 1793, 1792
 969,  326,  327,  336,  335, 1784, 1785, 1794, 1793
 970,  327,   61,   60,  336, 1785,  513,  514, 1794
 971,   82,  328,  337,   83,  433, 1786, 1795,  434
 972,  328,  329,  338,  337, 1786, 1787, 1796, 1795
 973,  329,  330,  339,  338, 1787, 1788, 1797, 1796
 974,  330,  331,  340,  339, 1788, 1789, 1798, 1797
 975,  331,  332,  341,  340, 1789, 1790, 1799, 1798
 976,  332,  333,  342,  341, 1790, 1791, 1800, 1799
 977,  333,  334,  343,  342, 1791, 1792, 1801, 1800
 978,  334,  335,  344,  343, 1792, 1793, 1802, 1801
 979,  335,  336,  345,  344, 1793, 1794, 1803, 1802
 980,  336,   60,   59,  345, 1794,  514,  515, 1803
 981,   83,  337,  346,   84,  434, 1795, 1804,  435
 982,  337,  338,  347,  346, 1795, 1796, 1805, 1804
 983,  338,  339,  348,  347, 1796, 1797, 1806, 1805
 984,  339,  340,  349,  348, 1797, 1798, 1807, 1806
 985,  340,  341,  350,  349, 1798, 1799, 1808, 1807
 986,  341,  342,  351,  350, 1799, 1800, 1809, 1808
 987,  342,  343,  352,  351, 1800, 1801, 1810, 1809
 988,  343,  344,  353,  352, 1801, 1802, 1811, 1810
 989,  344,  345,  354,  353, 1802, 1803, 1812, 1811
 990,  345,   59,   58,  354, 1803,  515,  516, 1812
 991,   84,  346,   67,    7,  435, 1804,  670,   93
 992,  346,  347,   68,   67, 1804, 1805,  671,  670
 993,  347,  348,   69,   68, 1805, 1806,  672,  671
 994,  348,  349,   70,   69, 1806, 1807,  673,  672
 995,  349,  350,   71,   70, 1807, 1808,  674,  673
 996,  350,  351,   72,   71, 1808, 1809,  675,  674
 997,  351,  352,   73,   72, 1809, 1810,  676,  675
 998,  352,  353,   74,   73, 1810, 1811,  677,  676
 999,  353,  354,   75,   74, 1811, 1812,  678,  677
1000,  354,   58,    6,   75, 1812,  516,  103,  678
1001,  112,  525, 1813,  841,    2,   21,  679,  147
1002,  525,  524, 1814, 1813,   21,   20,  680,  679
1003,  524,  523, 1815, 1814,   20,   19,  681,  680
1004,  523,  522, 1816, 1815,   19,   18,  682,  681
1005,  522,  521, 1817, 1816,   18,   17,  683,  682
1006,  521,  520, 1818, 1817,   17,   16,  684,  683
1007,  520,  519, 1819, 1818,   16,   15,  685,  684
1008,  519,  518, 1820, 1819,   15,   14,  686,  685
1009,  518,  517, 1821, 1820,   14,   13,  687,  686
1010,  517,  102,  922, 1821,   13,    1,  121,  687
1011,  841, 1813, 1822,  842,  147,  679,  688,  146
1012, 1813, 1814, 1823, 1822,  679,  680,  689,  688
1013, 1814, 1815, 1824, 1823,  680,  681,  690,  689
1014, 1815, 1816, 1825, 1824,  681,  682,  691,  690
1015, 1816, 1817, 1826, 1825,  682,  683,  692,  691
1016, 1817, 1818, 1827, 1826,  683,  684,  693,  692
1017, 1818, 1819, 1828, 1827,  684,  685,  694,  693
1018, 1819, 1820, 1829, 1828,  685,  686,  695,  694
1019, 1820, 1821, 1830, 1829,  686,  687,  696,  695
1020, 1821,  922,  923, 1830,  687,  121,  122,  696
1021,  842, 1822, 1831,  843,  146,  688,  697,  145
1022, 1822, 1823, 1832, 1831,  688,  689,  698,  697
1023, 1823, 1824, 1833, 1832,  689,  690,  699,  698
1024, 1824, 1825, 1834, 1833,  690,  691,  700,  699
1025, 1825, 1826, 1835, 1834,  691,  692,  701,  700
1026, 1826, 1827, 1836, 1835,  692,  693,  702,  701
1027, 1827, 1828, 1837, 1836,  693,  694,  703,  702
1028, 1828, 1829, 1838, 1837,  694,  695,  704,  703
1029, 1829, 1830, 1839, 1838,  695,  696,  705,  704
1030, 1830,  923,  924, 1839,  696,  122,  123,  705
1031,  843, 1831, 1840,  844,  145,  697,  706,  144
1032, 1831, 1832, 1841, 1840,  697,  698,  707,  706
1033, 1832, 1833, 1842, 1841,  698,  699,  708,  707
1034, 1833, 1834, 1843, 1842,  699,  700,  709,  708
1035, 1834, 1835, 1844, 1843,  700,  701,  710,  709
1036, 1835, 1836, 1845, 1844,  701,  702,  711,  710
1037, 1836, 1837, 1846, 1845,  702,  703,  712,  711
1038, 1837, 1838, 1847, 1846,  703,  704,  713,  712
1039, 1838, 1839, 1848, 1847,  704,  705,  714,  713
1040, 1839,  924,  925, 1848,  705,  123,  124,  714
1041,  844, 1840, 1849,  845,  144,  706,  715,  143
1042, 1840, 1841, 1850, 1849,  706,  707,  716,  715
1043, 1841, 1842, 1851, 1850,  707,  708,  717,  716
1044, 1842, 1843, 1852, 1851,  708,  709,  718,  717
1045, 1843, 1844, 1853, 1852,  709,  710,  719,  718
1046, 1844, 1845, 1854, 1853,  710,  711,  720,  719
1047, 1845, 1846, 1855, 1854,  711,  712,  721,  720
1048, 1846, 1847, 1856, 1855,  712,  713,  722,  721
1049, 1847, 1848, 1857, 1856,  713,  714,  723,  722
1050, 1848,  925,  926, 1857,  714,  124,  125,  723
1051,  845, 1849, 1858,  846,  143,  715,  724,  142
1052, 1849, 1850, 1859, 1858,  715,  716,  725,  724
1053, 1850, 1851, 1860, 1859,  716,  717,  726,  725
1054, 1851, 1852, 1861, 1860,  717,  718,  727,  726
1055, 1852, 1853, 1862, 1861,  718,  719,  728,  727
1056, 1853, 1854, 1863, 1862,  719,  720,  729,  728
1057, 1854, 1855, 1864, 1863,  720,  721,  730,  729
1058, 1855, 1856, 1865, 1864,  721,  722,  731,  730
1059, 1856, 1857, 1866, 1865,  722,  723,  732,  731
1060, 1857,  926,  927, 1866,  723,  125,  126,  732
1061,  846, 1858, 1867,  847,  142,  724,  733,  141
1062, 1858, 1859, 1868, 1867,  724,  725,  734,  733
1063, 1859, 1860, 1869, 1868,  725,  726,  735,  734
1064, 1860, 1861, 1870, 1869,  726,  727,  736,  735
1065, 1861, 1862, 1871, 1870,  727,  728,  737,  736
1066, 1862, 1863, 1872, 1871,  728,  729,  738,  737
1067, 1863, 1864, 1873, 1872,  729,  730,  739,  738
1068, 1864, 1865, 1874, 1873,  730,  731,  740,  739
1069, 1865, 1866, 1875, 1874,  731,  732,  741,  740
1070, 1866,  927,  928, 1875,  732,  126,  127,  741
1071,  847, 1867, 1876,  848,  141,  733,  742,  140
1072, 1867, 1868, 1877, 1876,  733,  734,  743,  742
1073, 1868, 1869, 1878, 1877,  734,  735,  744,  743
1074, 1869, 1870, 1879, 1878,  735,  736,  745,  744
1075, 1870, 1871, 1880, 1879,  736,  737,  746,  745
1076, 1871, 1872, 1881, 1880,  737,  738,  747,  746
1077, 1872, 1873, 1882, 1881,  738,  739,  748,  747
1078, 1873, 1874, 1883, 1882,  739,  740,  749,  748
1079, 1874, 1875, 1884, 1883,  740,  741,  750,  749
1080, 1875,  928,  929, 1884,  741,  127,  128,  750
1081,  848, 1876, 1885,  849,  140,  742,  751,  139
1082, 1876, 1877, 1886, 1885,  742,  743,  752,  751
1083, 1877, 1878, 1887, 1886,  743,  744,  753,  752
1084, 1878, 1879, 1888, 1887,  744,  745,  754,  753
1085, 1879, 1880, 1889, 1888,  745,  746,  755,  754
1086, 1880, 1881, 1890, 1889,  746,  747,  756,  755
1087, 1881, 1882, 1891, 1890,  747,  748,  757,  756
1088, 1882, 1883, 1892, 1891,  748,  749,  758,  757
1089, 1883, 1884, 1893, 1892,  749,  750,  759,  758
1090, 1884,  929,  930, 1893,  750,  128,  129,  759
1091,  849, 1885, 1003,  175,  139,  751,  138,   10
1092, 1885, 1886, 1004, 1003,  751,  752,  137,  138
1093, 1886, 1887, 1005, 1004,  752,  753,  136,  137
1094, 1887, 1888, 1006, 1005,  753,  754,  135,  136
1095, 1888, 1889, 1007, 1006,  754,  755,  134,  135
1096, 1889, 1890, 1008, 1007,  755,  756,  133,  134
1097, 1890, 1891, 1009, 1008,  756,  757,  132,  133
1098, 1891, 1892, 1010, 1009,  757,  758,  131,  132
1099, 1892, 1893, 1011, 1010,  758,  759,  130,  131
1100, 1893,  930,  192, 1011,  759,  129,    9,  130
1101,  113,  534, 1894,  850,  112,  525, 1813,  841
1102,  534,  533, 1895, 1894,  525,  524, 1814, 1813
1103,  533,  532, 1896, 1895,  524,  523, 1815, 1814
1104,  532,  531, 1897, 1896,  523,  522, 1816, 1815
1105,  531,  530, 1898, 1897,  522,  521, 1817, 1816
1106,  530,  529, 1899, 1898,  521,  520, 1818, 1817
1107,  529,  528, 1900, 1899,  520,  519, 1819, 1818
1108,  528,  527, 1901, 1900,  519,  518, 1820, 1819
1109,  527,  526, 1902, 1901,  518,  517, 1821, 1820
1110,  526,  101,  931, 1902,  517,  102,  922, 1821
1111,  850, 1894, 1903,  851,  841, 1813, 1822,  842
1112, 1894, 1895, 1904, 1903, 1813, 1814, 1823, 1822
1113, 1895, 1896, 1905, 1904, 1814, 1815, 1824, 1823
1114, 1896, 1897, 1906, 1905, 1815, 1816, 1825, 1824
1115, 1897, 1898, 1907, 1906, 1816, 1817, 1826, 1825
1116, 1898, 1899, 1908, 1907, 1817, 1818, 1827, 1826
1117, 1899, 1900, 1909, 1908, 1818, 1819, 1828, 1827
1118, 1900, 1901, 1910, 1909, 1819, 1820, 1829, 1828
1119, 1901, 1902, 1911, 1910, 1820, 1821, 1830, 1829
1120, 1902,  931,  932, 1911, 1821,  922,  923, 1830
1121,  851, 1903, 1912,  852,  842, 1822, 1831,  843
1122, 1903, 1904, 1913, 1912, 1822, 1823, 1832, 1831
1123, 1904, 1905, 1914, 1913, 1823, 1824, 1833, 1832
1124, 1905, 1906, 1915, 1914, 1824, 1825, 1834, 1833
1125, 1906, 1907, 1916, 1915, 1825, 1826, 1835, 1834
1126, 1907, 1908, 1917, 1916, 1826, 1827, 1836, 1835
1127, 1908, 1909, 1918, 1917, 1827, 1828, 1837, 1836
1128, 1909, 1910, 1919, 1918, 1828, 1829, 1838, 1837
1129, 1910, 1911, 1920, 1919, 1829, 1830, 1839, 1838
1130, 1911,  932,  933, 1920, 1830,  923,  924, 1839
1131,  852, 1912, 1921,  853,  843, 1831, 1840,  844
1132, 1912, 1913, 1922, 1921, 1831, 1832, 1841, 1840
1133, 1913, 1914, 1923, 1922, 1832, 1833, 1842, 1841
1134, 1914, 1915, 1924, 1923, 1833, 1834, 1843, 1842
1135, 1915, 1916, 1925, 1924, 1834, 1835, 1844, 1843
1136, 1916, 1917, 1926, 1925, 1835, 1836, 1845, 1844
1137, 1917, 1918, 1927, 1926, 1836, 1837, 1846, 1845
1138, 1918, 1919, 1928, 1927, 1837, 1838, 1847, 1846
1139, 1919, 1920, 1929, 1928, 1838, 1839, 1848, 1847
1140, 1920,  933,  934, 1929, 1839,  924,  925, 1848
1141,  853, 1921, 1930,  854,  844, 1840, 1849,  845
1142, 1921, 1922, 1931, 1930, 1840, 1841, 1850, 1849
1143, 1922, 1923, 1932, 1931, 1841, 1842, 1851, 1850
1144, 1923, 1924, 1933, 1932, 1842, 1843, 1852, 1851
1145, 1924, 1925, 1934, 1933, 1843, 1844, 1853, 1852
1146, 1925, 1926, 1935, 1934, 1844, 1845, 1854, 1853
1147, 1926, 1927, 1936, 1935, 1845, 1846, 1855, 1854
1148, 1927, 1928, 1937, 1936, 1846, 1847, 1856, 1855
1149, 1928, 1929, 1938, 1937, 1847, 1848, 1857, 1856
1150, 1929,  934,  935, 1938, 1848,  925,  926, 1857
1151,  854, 1930, 1939,  855,  845, 1849, 1858,  846
1152, 1930, 1931, 1940, 1939, 1849, 1850, 1859, 1858
1153, 1931, 1932, 1941, 1940, 1850, 1851, 1860, 1859
1154, 1932, 1933, 1942, 1941, 1851, 1852, 1861, 1860
1155, 1933, 1934, 1943, 1942, 1852, 1853, 1862, 1861
1156, 1934, 1935, 1944, 1943, 1853, 1854, 1863, 1862
1157, 1935, 1936, 1945, 1944, 1854, 1855, 1864, 1863
1158, 1936, 1937, 1946, 1945, 1855, 1856, 1865, 1864
1159, 1937, 1938, 1947, 1946, 1856, 1857, 1866, 1865
1160, 1938,  935,  936, 1947, 1857,  926,  927, 1866
1161,  855, 1939, 1948,  856,  846, 1858, 1867,  847
1162, 1939, 1940, 1949, 1948, 1858, 1859, 1868, 1867
1163, 1940, 1941, 1950, 1949, 1859, 1860, 1869, 1868
1164, 1941, 1942, 1951, 1950, 1860, 1861, 1870, 1869
1165, 1942, 1943, 1952, 1951, 1861, 1862, 1871, 1870
1166, 1943, 1944, 1953, 1952, 1862, 1863, 1872, 1871
1167, 1944, 1945, 1954, 1953, 1863, 1864, 1873, 1872
1168, 1945, 1946, 1955, 1954, 1864, 1865, 1874, 1873
1169, 1946, 1947, 1956, 1955, 1865, 1866, 1875, 1874
1170, 1947,  936,  937, 1956, 1866,  927,  928, 1875
1171,  856, 1948, 1957,  857,  847, 1867, 1876,  848
1172, 1948, 1949, 1958, 1957, 1867, 1868, 1877, 1876
1173, 1949, 1950, 1959, 1958, 1868, 1869, 1878, 1877
1174, 1950, 1951, 1960, 1959, 1869, 1870, 1879, 1878
1175, 1951, 1952, 1961, 1960, 1870, 1871, 1880, 1879
1176, 1952, 1953, 1962, 1961, 1871, 1872, 1881, 1880
1177, 1953, 1954, 1963, 1962, 1872, 1873, 1882, 1881
1178, 1954, 1955, 1964, 1963, 1873, 1874, 1883, 1882
1179, 1955, 1956, 1965, 1964, 1874, 1875, 1884, 1883
1180, 1956,  937,  938, 1965, 1875,  928,  929, 1884
1181,  857, 1957, 1966,  858,  848, 1876, 1885,  849
1182, 1957, 1958, 1967, 1966, 1876, 1877, 1886, 1885
1183, 1958, 1959, 1968, 1967, 1877, 1878, 1887, 1886
1184, 1959, 1960, 1969, 1968, 1878, 1879, 1888, 1887
1185, 1960, 1961, 1970, 1969, 1879, 1880, 1889, 1888
1186, 1961, 1962, 1971, 1970, 1880, 1881, 1890, 1889
1187, 1962, 1963, 1972, 1971, 1881, 1882, 1891, 1890
1188, 1963, 1964, 1973, 1972, 1882, 1883, 1892, 1891
1189, 1964, 1965, 1974, 1973, 1883, 1884, 1893, 1892
1190, 1965,  938,  939, 1974, 1884,  929,  930, 1893
1191,  858, 1966, 1012,  176,  849, 1885, 1003,  175
1192, 1966, 1967, 1013, 1012, 1885, 1886, 1004, 1003
1193, 1967, 1968, 1014, 1013, 1886, 1887, 1005, 1004
1194, 1968, 1969, 1015, 1014, 1887, 1888, 1006, 1005
1195, 1969, 1970, 1016, 1015, 1888, 1889, 1007, 1006
1196, 1970, 1971, 1017, 1016, 1889, 1890, 1008, 1007
1197, 1971, 1972, 1018, 1017, 1890, 1891, 1009, 1008
1198, 1972, 1973, 1019, 1018, 1891, 1892, 1010, 1009
1199, 1973, 1974, 1020, 1019, 1892, 1893, 1011, 1010
1200, 1974,  939,  191, 1020, 1893,  930,  192, 1011
1201,  114,  543, 1975,  859,  113,  534, 1894,  850
1202,  543,  542, 1976, 1975,  534,  533, 1895, 1894
1203,  542,  541, 1977, 1976,  533,  532, 1896, 1895
1204,  541,  540, 1978, 1977,  532,  531, 1897, 1896
1205,  540,  539, 1979, 1978,  531,  530, 1898, 1897
1206,  539,  538, 1980, 1979,  530,  529, 1899, 1898
1207,  538,  537, 1981, 1980,  529,  528, 1900, 1899
1208,  537,  536, 1982, 1981,  528,  527, 1901, 1900
1209,  536,  535, 1983, 1982,  527,  526, 1902, 1901
1210,  535,  100,  940, 1983,  526,  101,  931, 1902
1211,  859, 1975, 1984,  860,  850, 1894, 1903,  851
1212, 1975, 1976, 1985, 1984, 1894, 1895, 1904, 1903
1213, 1976, 1977, 1986, 1985, 1895, 1896, 1905, 1904
1214, 1977, 1978, 1987, 1986, 1896, 1897, 1906, 1905
1215, 1978, 1979, 1988, 1987, 1897, 1898, 1907, 1906
1216, 1979, 1980, 1989, 1988, 1898, 1899, 1908, 1907
1217, 1980, 1981, 1990, 1989, 1899, 1900, 1909, 1908
1218, 1981, 1982, 1991, 1990, 1900, 1901, 1910, 1909
1219, 1982, 1983, 1992, 1991, 1901, 1902, 1911, 1910
1220, 1983,  940,  941, 1992, 1902,  931,  932, 1911
1221,  860, 1984, 1993,  861,  851, 1903, 1912,  852
1222, 1984, 1985, 1994, 1993, 1903, 1904, 1913, 1912
1223, 1985, 1986, 1995, 1994, 1904, 1905, 1914, 1913
1224, 1986, 1987, 1996, 1995, 1905, 1906, 1915, 1914
1225, 1987, 1988, 1997, 1996, 1906, 1907, 1916, 1915
1226, 1988, 1989, 1998, 1997, 1907, 1908, 1917, 1916
1227, 1989, 1990, 1999, 1998, 1908, 1909, 1918, 1917
1228, 1990, 1991, 2000, 1999, 1909, 1910, 1919, 1918
1229, 1991, 1992, 2001, 2000, 1910, 1911, 1920, 1919
1230, 1992,  941,  942, 2001, 1911,  932,  933, 1920
1231,  861, 1993, 2002,  862,  852, 1912, 1921,  853
1232, 1993, 1994, 2003, 2002, 1912, 1913, 1922, 1921
1233, 1994, 1995, 2004, 2003, 1913, 1914, 1923, 1922
1234, 1995, 1996, 2005, 2004, 1914, 1915, 1924, 1923
1235, 1996, 1997, 2006, 2005, 1915, 1916, 1925, 1924
1236, 1997, 1998, 2007, 2006, 1916, 1917, 1926, 1925
1237, 1998, 1999, 2008, 2007, 1917, 1918, 1927, 1926
1238, 1999, 2000, 2009, 2008, 1918, 1919, 1928, 1927
1239, 2000, 2001, 2010, 2009, 1919, 1920, 1929, 1928
1240, 2001,  942,  943, 2010, 1920,  933,  934, 1929
1241,  862, 2002, 2011,  863,  853, 1921, 1930,  854
1242, 2002, 2003, 2012, 2011, 1921, 1922, 1931, 1930
1243, 2003, 2004, 2013, 2012, 1922, 1923, 1932, 1931
1244, 2004, 2005, 2014, 2013, 1923, 1924, 1933, 1932
1245, 2005, 2006, 2015, 2014, 1924, 1925, 1934, 1933
1246, 2006, 2007, 2016, 2015, 1925, 1926, 1935, 1934
1247, 2007, 2008, 2017, 2016, 1926, 1927, 1936, 1935
1248, 2008, 2009, 2018, 2017, 1927, 1928, 1937, 1936
1249, 2009, 2010, 2019, 2018, 1928, 1929, 1938, 1937
1250, 2010,  943,  944, 2019, 1929,  934,  935, 1938
1251,  863, 2011, 2020,  864,  854, 1930, 1939,  855
1252, 2011, 2012, 2021, 2020, 1930, 1931, 1940, 1939
1253, 2012, 2013, 2022, 2021, 1931, 1932, 1941, 1940
1254, 2013, 2014, 2023, 2022, 1932, 1933, 1942, 1941
1255, 2014, 2015, 2024, 2023, 1933, 1934, 1943, 1942
1256, 2015, 2016, 2025, 2024, 1934, 1935, 1944, 1943
1257, 2016, 2017, 2026, 2025, 1935, 1936, 1945, 1944
1258, 2017, 2018, 2027, 2026, 1936, 1937, 1946, 1945
1259, 2018, 2019, 2028, 2027, 1937, 1938, 1947, 1946
1260, 2019,  944,  945, 2028, 1938,  935,  936, 1947
1261,  864, 2020, 2029,  865,  855, 1939, 1948,  856
1262, 2020, 2021, 2030, 2029, 1939, 1940, 1949, 1948
1263, 2021, 2022, 2031, 2030, 1940, 1941, 1950, 1949
1264, 2022, 2023, 2032, 2031, 1941, 1942, 1951, 1950
1265, 2023, 2024, 2033, 2032, 1942, 1943, 1952, 1951
1266, 2024, 2025, 2034, 2033, 1943, 1944, 1953, 1952
1267, 2025, 2026, 2035, 2034, 1944, 1945, 1954, 1953
1268, 2026, 2027, 2036, 2035, 1945, 1946, 1955, 1954
1269, 2027, 2028, 2037, 2036, 1946, 1947, 1956, 1955
1270, 2028,  945,  946, 2037, 1947,  936,  937, 1956
1271,  865, 2029, 2038,  866,  856, 1948, 1957,  857
1272, 2029, 2030, 2039, 2038, 1948, 1949, 1958, 1957
1273, 2030, 2031, 2040, 2039, 1949, 1950, 1959, 1958
1274, 2031, 2032, 2041, 2040, 1950, 1951, 1960, 1959
1275, 2032, 2033, 2042, 2041, 1951, 1952, 1961, 1960
1276, 2033, 2034, 2043, 2042, 1952, 1953, 1962, 1961
1277, 2034, 2035, 2044, 2043, 1953, 1954, 1963, 1962
1278, 2035, 2036, 2045, 2044, 1954, 1955, 1964, 1963
1279, 2036, 2037, 2046, 2045, 1955, 1956, 1965, 1964
1280, 2037,  946,  947, 2046, 1956,  937,  938, 1965
1281,  866, 2038, 2047,  867,  857, 1957, 1966,  858
1282, 2038, 2039, 2048, 2047, 1957, 1958, 1967, 1966
1283, 2039, 2040, 2049, 2048, 1958, 1959, 1968, 1967
1284, 2040, 2041, 2050, 2049, 1959, 1960, 1969, 1968
1285, 2041, 2042, 2051, 2050, 1960, 1961, 1970, 1969
1286, 2042, 2043, 2052, 2051, 1961, 1962, 1971, 1970
1287, 2043, 2044, 2053, 2052, 1962, 1963, 1972, 1971
1288, 2044, 2045, 2054, 2053, 1963, 1964, 1973, 1972
1289, 2045, 2046, 2055, 2054, 1964, 1965, 1974, 1973
1290, 2046,  947,  948, 2055, 1965,  938,  939, 1974
1291,  867, 2047, 1021,  177,  858, 1966, 1012,  176
1292, 2047, 2048, 1022, 1021, 1966, 1967, 1013, 1012
1293, 2048, 2049, 1023, 1022, 1967, 1968, 1014, 1013
1294, 2049, 2050, 1024, 1023, 1968, 1969, 1015, 1014
1295, 2050, 2051, 1025, 1024, 1969, 1970, 1016, 1015
1296, 2051, 2052, 1026, 1025, 1970, 1971, 1017, 1016
1297, 2052, 2053, 1027, 1026, 1971, 1972, 1018, 1017
1298, 2053, 2054, 1028, 1027, 1972, 1973, 1019, 1018
1299, 2054, 2055, 1029, 1028, 1973, 1974, 1020, 1019
1300, 2055,  948,  190, 1029, 1974,  939,  191, 1020
1301,  115,  552, 2056,  868,  114,  543, 1975,  859
1302,  552,  551, 2057, 2056,  543,  542, 1976, 1975
1303,  551,  550, 2058, 2057,  542,  541, 1977, 1976
1304,  550,  549, 2059, 2058,  541,  540, 1978, 1977
1305,  549,  548, 2060, 2059,  540,  539, 1979, 1978
1306,  548,  547, 2061, 2060,  539,  538, 1980, 1979
1307,  547,  546, 2062, 2061,  538,  537, 1981, 1980
1308,  546,  545, 2063, 2062,  537,  536, 1982, 1981
1309,  545,  544, 2064, 2063,  536,  535, 1983, 1982
1310,  544,   99,  949, 2064,  535,  100,  940, 1983
1311,  868, 2056, 2065,  869,  859, 1975, 1984,  860
1312, 2056, 2057, 2066, 2065, 1975, 1976, 1985, 1984
1313, 2057, 2058, 2067, 2066, 1976, 1977, 1986, 1985
1314, 2058, 2059, 2068, 2067, 1977, 1978, 1987, 1986
1315, 2059, 2060, 2069, 2068, 1978, 1979, 1988, 1987
1316, 2060, 2061, 2070, 2069, 1979, 1980, 1989, 1988
1317, 2061, 2062, 2071, 2070, 1980, 1981, 1990, 1989
1318, 2062, 2063, 2072, 2071, 1981, 1982, 1991, 1990
1319, 2063, 2064, 2073, 2072, 1982, 1983, 1992, 1991
1320, 2064,  949,  950, 2073, 1983,  940,  941, 1992
1321,  869, 2065, 2074,  870,  860, 1984, 1993,  861
1322, 2065, 2066, 2075, 2074, 1984, 1985, 1994, 1993
1323, 2066, 2067, 2076, 2075, 1985, 1986, 1995, 1994
1324, 2067, 2068, 2077, 2076, 1986, 1987, 1996, 1995
1325, 2068, 2069, 2078, 2077, 1987, 1988, 1997, 1996
1326, 2069, 2070, 2079, 2078, 1988, 1989, 1998, 1997
1327, 2070, 2071, 2080, 2079, 1989, 1990, 1999, 1998
1328, 2071, 2072, 2081, 2080, 1990, 1991, 2000, 1999
1329, 2072, 2073, 2082, 2081, 1991, 1992, 2001, 2000
1330, 2073,  950,  951, 2082, 1992,  941,  942, 2001
1331,  870, 2074, 2083,  871,  861, 1993, 2002,  862
1332, 2074, 2075, 2084, 2083, 1993, 1994, 2003, 2002
1333, 2075, 2076, 2085, 2084, 1994, 1995, 2004, 2003
1334, 2076, 2077, 2086, 2085, 1995, 1996, 2005, 2004
1335, 2077, 2078, 2087, 2086, 1996, 1997, 2006, 2005
1336, 2078, 2079, 2088, 2087, 1997, 1998, 2007, 2006
1337, 2079, 2080, 2089, 2088, 1998, 1999, 2008, 2007
1338, 2080, 2081, 2090, 2089, 1999, 2000, 2009, 2008
1339, 2081, 2082, 2091, 2090, 2000, 2001, 2010, 2009
1340, 2082,  951,  952, 2091, 2001,  942,  943, 2010
1341,  871, 2083, 2092,  872,  862, 2002, 2011,  863
1342, 2083, 2084, 2093, 2092, 2002, 2003, 2012, 2011
1343, 2084, 2085, 2094, 2093, 2003, 2004, 2013, 2012
1344, 2085, 2086, 2095, 2094, 2004, 2005, 2014, 2013
1345, 2086, 2087, 2096, 2095, 2005, 2006, 2015, 2014
1346, 2087, 2088, 2097, 2096, 2006, 2007, 2016, 2015
1347, 2088, 2089, 2098, 2097, 2007, 2008, 2017, 2016
1348, 2089, 2090, 2099, 2098, 2008, 2009, 2018, 2017
1349, 2090, 2091, 2100, 2099, 2009, 2010, 2019, 2018
1350, 2091,  952,  953, 2100, 2010,  943,  944, 2019
1351,  872, 2092, 2101,  873,  863, 2011, 2020,  864
1352, 2092, 2093, 2102, 2101, 2011, 2012, 2021, 2020
1353, 2093, 2094, 2103, 2102, 2012, 2013, 2022, 2021
1354, 2094, 2095, 2104, 2103, 2013, 2014, 2023, 2022
1355, 2095, 2096, 2105, 2104, 2014, 2015, 2024, 2023
1356, 2096, 2097, 2106, 2105, 2015, 2016, 2025, 2024
1357, 2097, 2098, 2107, 2106, 2016, 2017, 2026, 2025
1358, 2098, 2099, 2108, 2107, 2017, 2018, 2027, 2026
1359, 2099, 2100, 2109, 2108, 2018, 2019, 2028, 2027
1360, 2100,  953,  954, 2109, 2019,  944,  945, 2028
1361,  873, 2101, 2110,  874,  864, 2020, 2029,  865
1362, 2101, 2102, 2111, 2110, 2020, 2021, 2030, 2029
1363, 2102, 2103, 2112, 2111, 2021, 2022, 2031, 2030
1364, 2103, 2104, 2113, 2112, 2022, 2023, 2032, 2031
1365, 2104, 2105, 2114, 2113, 2023, 2024, 2033, 2032
1366, 2105, 2106, 2115, 2114, 2024, 2025, 2034, 2033
1367, 2106, 2107, 2116, 2115, 2025, 2026, 2035, 2034
1368, 2107, 2108, 2117, 2116, 2026, 2027, 2036, 2035
1369, 2108, 2109, 2118, 2117, 2027, 2028, 2037, 2036
1370, 2109,  954,  955, 2118, 2028,  945,  946, 2037
1371,  874, 2110, 2119,  875,  865, 2029, 2038,  866
1372, 2110, 2111, 2120, 2119, 2029, 2030, 2039, 2038
1373, 2111, 2112, 2121, 2120, 2030, 2031, 2040, 2039
1374, 2112, 2113, 2122, 2121, 2031, 2032, 2041, 2040
1375, 2113, 2114, 2123, 2122, 2032, 2033, 2042, 2041
1376, 2114, 2115, 2124, 2123, 2033, 2034, 2043, 2042
1377, 2115, 2116, 2125, 2124, 2034, 2035, 2044, 2043
1378, 2116, 2117, 2126, 2125, 2035, 2036, 2045, 2044
1379, 2117, 2118, 2127, 2126, 2036, 2037, 2046, 2045
1380, 2118,  955,  956, 2127, 2037,  946,  947, 2046
1381,  875, 2119, 2128,  876,  866, 2038, 2047,  867
1382, 2119, 2120, 2129, 2128, 2038, 2039, 2048, 2047
1383, 2120, 2121, 2130, 2129, 2039, 2040, 2049, 2048
1384, 2121, 2122, 2131, 2130, 2040, 2041, 2050, 2049
1385, 2122, 2123, 2132, 2131, 2041, 2042, 2051, 2050
1386, 2123, 2124, 2133, 2132, 2042, 2043, 2052, 2051
1387, 2124, 2125, 2134, 2133, 2043, 2044, 2053, 2052
1388, 2125, 2126, 2135, 2134, 2044, 2045, 2054, 2053
1389, 2126, 2127, 2136, 2135, 2045, 2046, 2055, 2054
1390, 2127,  956,  957, 2136, 2046,  947,  948, 2055
1391,  876, 2128, 1030,  178,  867, 2047, 1021,  177
1392, 2128, 2129, 1031, 1030, 2047, 2048, 1022, 1021
1393, 2129, 2130, 1032, 1031, 2048, 2049, 1023, 1022
1394, 2130, 2131, 1033, 1032, 2049, 2050, 1024, 1023
1395, 2131, 2132, 1034, 1033, 2050, 2051, 1025, 1024
1396, 2132, 2133, 1035, 1034, 2051, 2052, 1026, 1025
1397, 2133, 2134, 1036, 1035, 2052, 2053, 1027, 1026
1398, 2134, 2135, 1037, 1036, 2053, 2054, 1028, 1027
1399, 2135, 2136, 1038, 1037, 2054, 2055, 1029, 1028
1400, 2136,  957,  189, 1038, 2055,  948,  190, 1029
1401,  116,  561, 2137,  877,  115,  552, 2056,  868
1402,  561,  560, 2138, 2137,  552,  551, 2057, 2056
1403,  560,  559, 2139, 2138,  551,  550, 2058, 2057
1404,  559,  558, 2140, 2139,  550,  549, 2059, 2058
1405,  558,  557, 2141, 2140,  549,  548, 2060, 2059
1406,  557,  556, 2142, 2141,  548,  547, 2061, 2060
1407,  556,  555, 2143, 2142,  547,  546, 2062, 2061
1408,  555,  554, 2144, 2143,  546,  545, 2063, 2062
1409,  554,  553, 2145, 2144,  545,  544, 2064, 2063
1410,  553,   98,  958, 2145,  544,   99,  949, 2064
1411,  877, 2137, 2146,  878,  868, 2056, 2065,  869
1412, 2137, 2138, 2147, 2146, 2056, 2057, 2066, 2065
1413, 2138, 2139, 2148, 2147, 2057, 2058, 2067, 2066
1414, 2139, 2140, 2149, 2148, 2058, 2059, 2068, 2067
1415, 2140, 2141, 2150, 2149, 2059, 2060, 2069, 2068
1416, 2141, 2142, 2151, 2150, 2060, 2061, 2070, 2069
1417, 2142, 2143, 2152, 2151, 2061, 2062, 2071, 2070
1418, 2143, 2144, 2153, 2152, 2062, 2063, 2072, 2071
1419, 2144, 2145, 2154, 2153, 2063, 2064, 2073, 2072
1420, 2145,  958,  959, 2154, 2064,  949,  950, 2073
1421,  878, 2146, 2155,  879,  869, 2065, 2074,  870
1422, 2146, 2147, 2156, 2155, 2065, 2066, 2075, 2074
1423, 2147, 2148, 2157, 2156, 2066, 2067, 2076, 2075
1424, 2148, 2149, 2158, 2157, 2067, 2068, 2077, 2076
1425, 2149, 2150, 2159, 2158, 2068, 2069, 2078, 2077
1426, 2150, 2151, 2160, 2159, 2069, 2070, 2079, 2078
1427, 2151, 2152, 2161, 2160, 2070, 2071, 2080, 2079
1428, 2152, 2153, 2162, 2161, 2071, 2072, 2081, 2080
1429, 2153, 2154, 2163, 2162, 2072, 2073, 2082, 2081
1430, 2154,  959,  960, 2163, 2073,  950,  951, 2082
1431,  879, 2155, 2164,  880,  870, 2074, 2083,  871
1432, 2155, 2156, 2165, 2164, 2074, 2075, 2084, 2083
1433, 2156, 2157, 2166, 2165, 2075, 2076, 2085, 2084
1434, 2157, 2158, 2167, 2166, 2076, 2077, 2086, 2085
1435, 2158, 2159, 2168, 2167, 2077, 2078, 2087, 2086
1436, 2159, 2160, 2169, 2168, 2078, 2079, 2088, 2087
1437, 2160, 2161, 2170, 2169, 2079, 2080, 2089, 2088
1438, 2161, 2162, 2171, 2170, 2080, 2081, 2090, 2089
1439, 2162, 2163, 2172, 2171, 2081, 2082, 2091, 2090
1440, 2163,  960,  961, 2172, 2082,  951,  952, 2091
1441,  880, 2164, 2173,  881,  871, 2083, 2092,  872
1442, 2164, 2165, 2174, 2173, 2083, 2084, 2093, 2092
1443, 2165, 2166, 2175, 2174, 2084, 2085, 2094, 2093
1444, 2166, 2167, 2176, 2175, 2085, 2086, 2095, 2094
1445, 2167, 2168, 2177, 2176, 2086, 2087, 2096, 2095
1446, 2168, 2169, 2178, 2177, 2087, 2088, 2097, 2096
1447, 2169, 2170, 2179, 2178, 2088, 2089, 2098, 2097
1448, 2170, 2171, 2180, 2179, 2089, 2090, 2099, 2098
1449, 2171, 2172, 2181, 2180, 2090, 2091, 2100, 2099
1450, 2172,  961,  962, 2181, 2091,  952,  953, 2100
1451,  881, 2173, 2182,  882,  872, 2092, 2101,  873
1452, 2173, 2174, 2183, 2182, 2092, 2093, 2102, 2101
1453, 2174, 2175, 2184, 2183, 2093, 2094, 2103, 2102
1454, 2175, 2176, 2185, 2184, 2094, 2095, 2104, 2103
1455, 2176, 2177, 2186, 2185, 2095, 2096, 2105, 2104
1456, 2177, 2178, 2187, 2186, 2096, 2097, 2106, 2105
1457, 2178, 2179, 2188, 2187, 2097, 2098, 2107, 2106
1458, 2179, 2180, 2189, 2188, 2098, 2099, 2108, 2107
1459, 2180, 2181, 2190, 2189, 2099, 2100, 2109, 2108
1460, 2181,  962,  963, 2190, 2100,  953,  954, 2109
1461,  882, 2182, 2191,  883,  873, 2101, 2110,  874
1462, 2182, 2183, 2192, 2191, 2101, 2102, 2111, 2110
1463, 2183, 2184, 2193, 2192, 2102, 2103, 2112, 2111
1464, 2184, 2185, 2194, 2193, 2103, 2104, 2113, 2112
1465, 2185, 2186, 2195, 2194, 2104, 2105, 2114, 2113
1466, 2186, 2187, 2196, 2195, 2105, 2106, 2115, 2114
1467, 2187, 2188, 2197, 2196, 2106, 2107, 2116, 2115
1468, 2188, 2189, 2198, 2197, 2107, 2108, 2117, 2116
1469, 2189, 2190, 2199, 2198, 2108, 2109, 2118, 2117
1470, 2190,  963,  964, 2199, 2109,  954,  955, 2118
1471,  883, 2191, 2200,  884,  874, 2110, 2119,  875
1472, 2191, 2192, 2201, 2200, 2110, 2111, 2120, 2119
1473, 2192, 2193, 2202, 2201, 2111, 2112, 2121, 2120
1474, 2193, 2194, 2203, 2202, 2112, 2113, 2122, 2121
1475, 2194, 2195, 2204, 2203, 2113, 2114, 2123, 2122
1476, 2195, 2196, 2205, 2204, 2114, 2115, 2124, 2123
1477, 2196, 2197, 2206, 2205, 2115, 2116, 2125, 2124
1478, 2197, 2198, 2207, 2206, 2116, 2117, 2126, 2125
1479, 2198, 2199, 2208, 2207, 2117, 2118, 2127, 2126
1480, 2199,  964,  965, 2208, 2118,  955,  956, 2127
1481,  884, 2200, 2209,  885,  875, 2119, 2128,  876
1482, 2200, 2201, 2210, 2209, 2119, 2120, 2129, 2128
1483, 2201, 2202, 2211, 2210, 2120, 2121, 2130, 2129
1484, 2202, 2203, 2212, 2211, 2121, 2122, 2131, 2130
1485, 2203, 2204, 2213, 2212, 2122, 2123, 2132, 2131
1486, 2204, 2205, 2214, 2213, 2123, 2124, 2133, 2132
1487, 2205, 2206, 2215, 2214, 2124, 2125, 2134, 2133
1488, 2206, 2207, 2216, 2215, 2125, 2126, 2135, 2134
1489, 2207, 2208, 2217, 2216, 2126, 2127, 2136, 2135
1490, 2208,  965,  966, 2217, 2127,  956,  957, 2136
1491,  885, 2209, 1039,  179,  876, 2128, 1030,  178
1492, 2209, 2210, 1040, 1039, 2128, 2129, 1031, 1030
1493, 2210, 2211, 1041, 1040, 2129, 2130, 1032, 1031
1494, 2211, 2212, 1042, 1041, 2130, 2131, 1033, 1032
1495, 2212, 2213, 1043, 1042, 2131, 2132, 1034, 1033
1496, 2213, 2214, 1044, 1043, 2132, 2133, 1035, 1034
1497, 2214, 2215, 1045, 1044, 2133, 2134, 1036, 1035
1498, 2215, 2216, 1046, 1045, 2134, 2135, 1037, 1036
1499, 2216, 2217, 1047, 1046, 2135, 2136, 1038, 1037
1500, 2217,  966,  188, 1047, 2136,  957,  189, 1038
1501,  117,  570, 2218,  886,  116,  561, 2137,  877
1502,  570,  569, 2219, 2218,  561,  560, 2138, 2137
1503,  569,  568, 2220, 2219,  560,  559, 2139, 2138
1504,  568,  567, 2221, 2220,  559,  558, 2140, 2139
1505,  567,  566, 2222, 2221,  558,  557, 2141, 2140
1506,  566,  565, 2223, 2222,  557,  556, 2142, 2141
1507,  565,  564, 2224, 2223,  556,  555, 2143, 2142
1508,  564,  563, 2225, 2224,  555,  554, 2144, 2143
1509,  563,  562, 2226, 2225,  554,  553, 2145, 2144
1510,  562,   97,  967, 2226,  553,   98,  958, 2145
1511,  886, 2218, 2227,  887,  877, 2137, 2146,  878
1512, 2218, 2219, 2228, 2227, 2137, 2138, 2147, 2146
1513, 2219, 2220, 2229, 2228, 2138, 2139, 2148, 2147
1514, 2220, 2221, 2230, 2229, 2139, 2140, 2149, 2148
1515, 2221, 2222, 2231, 2230, 2140, 2141, 2150, 2149
1516, 2222, 2223, 2232, 2231, 2141, 2142, 2151, 2150
1517, 2223, 2224, 2233, 2232, 2142, 2143, 2152, 2151
1518, 2224, 2225, 2234, 2233, 2143, 2144, 2153, 2152
1519, 2225, 2226, 2235, 2234, 2144, 2145, 2154, 2153
1520, 2226,  967,  968, 2235, 2145,  958,  959, 2154
1521,  887, 2227, 2236,  888,  878, 2146, 2155,  879
1522, 2227, 2228, 2237, 2236, 2146, 2147, 2156, 2155
1523, 2228, 2229, 2238, 2237, 2147, 2148, 2157, 2156
1524, 2229, 2230, 2239, 2238, 2148, 2149, 2158, 2157
1525, 2230, 2231, 2240, 2239, 2149, 2150, 2159, 2158
1526, 2231, 2232, 2241, 2240, 2150, 2151, 2160, 2159
1527, 2232, 2233, 2242, 2241, 2151, 2152, 2161, 2160
1528, 2233, 2234, 2243, 2242, 2152, 2153, 2162, 2161
1529, 2234, 2235, 2244, 2243, 2153, 2154, 2163, 2162
1530, 2235,  968,  969, 2244, 2154,  959,  960, 2163
1531,  888, 2236, 2245,  889,  879, 2155, 2164,  880
1532, 2236, 2237, 2246, 2245, 2155, 2156, 2165, 2164
1533, 2237, 2238, 2247, 2246, 2156, 2157, 2166, 2165
1534, 2238, 2239, 2248, 2247, 2157, 2158, 2167, 2166
1535, 2239, 2240, 2249, 2248, 2158, 2159, 2168, 2167
1536, 2240, 2241, 2250, 2249, 2159, 2160, 2169, 2168
1537, 2241, 2242, 2251, 2250, 2160, 2161, 2170, 2169
1538, 2242, 2243, 2252, 2251, 2161, 2162, 2171, 2170
1539, 2243, 2244, 2253, 2252, 2162, 2163, 2172, 2171
1540, 2244,  969,  970, 2253, 2163,  960,  961, 2172
1541,  889, 2245, 2254,  890,  880, 2164, 2173,  881
1542, 2245, 2246, 2255, 2254, 2164, 2165, 2174, 2173
1543, 2246, 2247, 2256, 2255, 2165, 2166, 2175, 2174
1544, 2247, 2248, 2257, 2256, 2166, 2167, 2176, 2175
1545, 2248, 2249, 2258, 2257, 2167, 2168, 2177, 2176
1546, 2249, 2250, 2259, 2258, 2168, 2169, 2178, 2177
1547, 2250, 2251, 2260, 2259, 2169, 2170, 2179, 2178
1548, 2251, 2252, 2261, 2260, 2170, 2171, 2180, 2179
1549, 2252, 2253, 2262, 2261, 2171, 2172, 2181, 2180
1550, 2253,  970,  971, 2262, 2172,  961,  962, 2181
1551,  890, 2254, 2263,  891,  881, 2173, 2182,  882
1552, 2254, 2255, 2264, 2263, 2173, 2174, 2183, 2182
1553, 2255, 2256, 2265, 2264, 2174, 2175, 2184, 2183
1554, 2256, 2257, 2266, 2265, 2175, 2176, 2185, 2184
1555, 2257, 2258, 2267, 2266, 2176, 2177, 2186, 2185
1556, 2258, 2259, 2268, 2267, 2177, 2178, 2187, 2186
1557, 2259, 2260, 2269, 2268, 2178, 2179, 2188, 2187
1558, 2260, 2261, 2270, 2269, 2179, 2180, 2189, 2188
1559, 2261, 2262, 2271, 2270, 2180, 2181, 2190, 2189
1560, 2262,  971,  972, 2271, 2181,  962,  963, 2190
1561,  891, 2263, 2272,  892,  882, 2182, 2191,  883
1562, 2263, 2264, 2273, 2272, 2182, 2183, 2192, 2191
1563, 2264, 2265, 2274, 2273, 2183, 2184, 2193, 2192
1564, 2265, 2266, 2275, 2274, 2184, 2185, 2194, 2193
1565, 2266, 2267, 2276, 2275, 2185, 2186, 2195, 2194
1566, 2267, 2268, 2277, 2276, 2186, 2187, 2196, 2195
1567, 2268, 2269, 2278, 2277, 2187, 2188, 2197, 2196
1568, 2269, 2270, 2279, 2278, 2188, 2189, 2198, 2197
1569, 2270, 2271, 2280, 2279, 2189, 2190, 2199, 2198
1570, 2271,  972,  973, 2280, 2190,  963,  964, 2199
1571,  892, 2272, 2281,  893,  883, 2191, 2200,  884
1572, 2272, 2273, 2282, 2281, 2191, 2192, 2201, 2200
1573, 2273, 2274, 2283, 2282, 2192, 2193, 2202, 2201
1574, 2274, 2275, 2284, 2283, 2193, 2194, 2203, 2202
1575, 2275, 2276, 2285, 2284, 2194, 2195, 2204, 2203
1576, 2276, 2277, 2286, 2285, 2195, 2196, 2205, 2204
1577, 2277, 2278, 2287, 2286, 2196, 2197, 2206, 2205
1578, 2278, 2279, 2288, 2287, 2197, 2198, 2207, 2206
1579, 2279, 2280, 2289, 2288, 2198, 2199, 2208, 2207
1580, 2280,  973,  974, 2289, 2199,  964,  965, 2208
1581,  893, 2281, 2290,  894,  884, 2200, 2209,  885
1582, 2281, 2282, 2291, 2290, 2200, 2201, 2210, 2209
1583, 2282, 2283, 2292, 2291, 2201, 2202, 2211, 2210
1584, 2283, 2284, 2293, 2292, 2202, 2203, 2212, 2211
1585, 2284, 2285, 2294, 2293, 2203, 2204, 2213, 2212
1586, 2285, 2286, 2295, 2294, 2204, 2205, 2214, 2213
1587, 2286, 2287, 2296, 2295, 2205, 2206, 2215, 2214
1588, 2287, 2288, 2297, 2296, 2206, 2207, 2216, 2215
1589, 2288, 2289, 2298, 2297, 2207, 2208, 2217, 2216
1590, 2289,  974,  975, 2298, 2208,  965,  966, 2217
1591,  894, 2290, 1048,  180,  885, 2209, 1039,  179
1592, 2290, 2291, 1049, 1048, 2209, 2210, 1040, 1039
1593, 2291, 2292, 1050, 1049, 2210, 2211, 1041, 1040
1594, 2292, 2293, 1051, 1050, 2211, 2212, 1042, 1041
1595, 2293, 2294, 1052, 1051, 2212, 2213, 1043, 1042
1596, 2294, 2295, 1053, 1052, 2213, 2214, 1044, 1043
1597, 2295, 2296, 1054, 1053, 2214, 2215, 1045, 1044
1598, 2296, 2297, 1055, 1054, 2215, 2216, 1046, 1045
1599, 2297, 2298, 1056, 1055, 2216, 2217, 1047, 1046
1600, 2298,  975,  187, 1056, 2217,  966,  188, 1047
1601,  118,  579, 2299,  895,  117,  570, 2218,  886
1602,  579,  578, 2300, 2299,  570,  569, 2219, 2218
1603,  578,  577, 2301, 2300,  569,  568, 2220, 2219
1604,  577,  576, 2302, 2301,  568,  567, 2221, 2220
1605,  576,  575, 2303, 2302,  567,  566, 2222, 2221
1606,  575,  574, 2304, 2303,  566,  565, 2223, 2222
1607,  574,  573, 2305, 2304,  565,  564, 2224, 2223
1608,  573,  572, 2306, 2305,  564,  563, 2225, 2224
1609,  572,  571, 2307, 2306,  563,  562, 2226, 2225
1610,  571,   96,  976, 2307,  562,   97,  967, 2226
1611,  895, 2299, 2308,  896,  886, 2218, 2227,  887
1612, 2299, 2300, 2309, 2308, 2218, 2219, 2228, 2227
1613, 2300, 2301, 2310, 2309, 2219, 2220, 2229, 2228
1614, 2301, 2302, 2311, 2310, 2220, 2221, 2230, 2229
1615, 2302, 2303, 2312, 2311, 2221, 2222, 2231, 2230
1616, 2303, 2304, 2313, 2312, 2222, 2223, 2232, 2231
1617, 2304, 2305, 2314, 2313, 2223, 2224, 2233, 2232
1618, 2305, 2306, 2315, 2314, 2224, 2225, 2234, 2233
1619, 2306, 2307, 2316, 2315, 2225, 2226, 2235, 2234
1620, 2307,  976,  977, 2316, 2226,  967,  968, 2235
1621,  896, 2308, 2317,  897,  887, 2227, 2236,  888
1622, 2308, 2309, 2318, 2317, 2227, 2228, 2237, 2236
1623, 2309, 2310, 2319, 2318, 2228, 2229, 2238, 2237
1624, 2310, 2311, 2320, 2319, 2229, 2230, 2239, 2238
1625, 2311, 2312, 2321, 2320, 2230, 2231, 2240, 2239
1626, 2312, 2313, 2322, 2321, 2231, 2232, 2241, 2240
1627, 2313, 2314, 2323, 2322, 2232, 2233, 2242, 2241
1628, 2314, 2315, 2324, 2323, 2233, 2234, 2243, 2242
1629, 2315, 2316, 2325, 2324, 2234, 2235, 2244, 2243
1630, 2316,  977,  978, 2325, 2235,  968,  969, 2244
1631,  897, 2317, 2326,  898,  888, 2236, 2245,  889
1632, 2317, 2318, 2327, 2326, 2236, 2237, 2246, 2245
1633, 2318, 2319, 2328, 2327, 2237, 2238, 2247, 2246
1634, 2319, 2320, 2329, 2328, 2238, 2239, 2248, 2247
1635, 2320, 2321, 2330, 2329, 2239, 2240, 2249, 2248
1636, 2321, 2322, 2331, 2330, 2240, 2241, 2250, 2249
1637, 2322, 2323, 2332, 2331, 2241, 2242, 2251, 2250
1638, 2323, 2324, 2333, 2332, 2242, 2243, 2252, 2251
1639, 2324, 2325, 2334, 2333, 2243, 2244, 2253, 2252
1640, 2325,  978,  979, 2334, 2244,  969,  970, 2253
1641,  898, 2326, 2335,  899,  889, 2245, 2254,  890
1642, 2326, 2327, 2336, 2335, 2245, 2246, 2255, 2254
1643, 2327, 2328, 2337, 2336, 2246, 2247, 2256, 2255
1644, 2328, 2329, 2338, 2337, 2247, 2248, 2257, 2256
1645, 2329, 2330, 2339, 2338, 2248, 2249, 2258, 2257
1646, 2330, 2331, 2340, 2339, 2249, 2250, 2259, 2258
1647, 2331, 2332, 2341, 2340, 2250, 2251, 2260, 2259
1648, 2332, 2333, 2342, 2341, 2251, 2252, 2261, 2260
1649, 2333, 2334, 2343, 2342, 2252, 2253, 2262, 2261
1650, 2334,  979,  980, 2343, 2253,  970,  971, 2262
1651,  899, 2335, 2344,  900,  890, 2254, 2263,  891
1652, 2335, 2336, 2345, 2344, 2254, 2255, 2264, 2263
1653, 2336, 2337, 2346, 2345, 2255, 2256, 2265, 2264
1654, 2337, 2338, 2347, 2346, 2256, 2257, 2266, 2265
1655, 2338, 2339, 2348, 2347, 2257, 2258, 2267, 2266
1656, 2339, 2340, 2349, 2348, 2258, 2259, 2268, 2267
1657, 2340, 2341, 2350, 2349, 2259, 2260, 2269, 2268
1658, 2341, 2342, 2351, 2350, 2260, 2261, 2270, 2269
1659, 2342, 2343, 2352, 2351, 2261, 2262, 2271, 2270
1660, 2343,  980,  981, 2352, 2262,  971,  972, 2271
1661,  900, 2344, 2353,  901,  891, 2263, 2272,  892
1662, 2344, 2345, 2354, 2353, 2263, 2264, 2273, 2272
1663, 2345, 2346, 2355, 2354, 2264, 2265, 2274, 2273
1664, 2346, 2347, 2356, 2355, 2265, 2266, 2275, 2274
1665, 2347, 2348, 2357, 2356, 2266, 2267, 2276, 2275
1666, 2348, 2349, 2358, 2357, 2267, 2268, 2277, 2276
1667, 2349, 2350, 2359, 2358, 2268, 2269, 2278, 2277
1668, 2350, 2351, 2360, 2359, 2269, 2270, 2279, 2278
1669, 2351, 2352, 2361, 2360, 2270, 2271, 2280, 2279
1670, 2352,  981,  982, 2361, 2271,  972,  973, 2280
1671,  901, 2353, 2362,  902,  892, 2272, 2281,  893
1672, 2353, 2354, 2363, 2362, 2272, 2273, 2282, 2281
1673, 2354, 2355, 2364, 2363, 2273, 2274, 2283, 2282
1674, 2355, 2356, 2365, 2364, 2274, 2275, 2284, 2283
1675, 2356, 2357, 2366, 2365, 2275, 2276, 2285, 2284
1676, 2357, 2358, 2367, 2366, 2276, 2277, 2286, 2285
1677, 2358, 2359, 2368, 2367, 2277, 2278, 2287, 2286
1678, 2359, 2360, 2369, 2368, 2278, 2279, 2288, 2287
1679, 2360, 2361, 2370, 2369, 2279, 2280, 2289, 2288
1680, 2361,  982,  983, 2370, 2280,  973,  974, 2289
1681,  902, 2362, 2371,  903,  893, 2281, 2290,  894
1682, 2362, 2363, 2372, 2371, 2281, 2282, 2291, 2290
1683, 2363, 2364, 2373, 2372, 2282, 2283, 2292, 2291
1684, 2364, 2365, 2374, 2373, 2283, 2284, 2293, 2292
1685, 2365, 2366, 2375, 2374, 2284, 2285, 2294, 2293
1686, 2366, 2367, 2376, 2375, 2285, 2286, 2295, 2294
1687, 2367, 2368, 2377, 2376, 2286, 2287, 2296, 2295
1688, 2368, 2369, 2378, 2377, 2287, 2288, 2297, 2296
1689, 2369, 2370, 2379, 2378, 2288, 2289, 2298, 2297
1690, 2370,  983,  984, 2379, 2289,  974,  975, 2298
1691,  903, 2371, 1057,  181,  894, 2290, 1048,  180
1692, 2371, 2372, 1058, 1057, 2290, 2291, 1049, 1048
1693, 2372, 2373, 1059, 1058, 2291, 2292, 1050, 1049
1694, 2373, 2374, 1060, 1059, 2292, 2293, 1051, 1050
1695, 2374, 2375, 1061, 1060, 2293, 2294, 1052, 1051
1696, 2375, 2376, 1062, 1061, 2294, 2295, 1053, 1052
1697, 2376, 2377, 1063, 1062, 2295, 2296, 1054, 1053
1698, 2377, 2378, 1064, 1063, 2296, 2297, 1055, 1054
1699, 2378, 2379, 1065, 1064, 2297, 2298, 1056, 1055
1700, 2379,  984,  186, 1065, 2298,  975,  187, 1056
1701,  119,  588, 2380,  904,  118,  579, 2299,  895
1702,  588,  587, 2381, 2380,  579,  578, 2300, 2299
1703,  587,  586, 2382, 2381,  578,  577, 2301, 2300
1704,  586,  585, 2383, 2382,  577,  576, 2302, 2301
1705,  585,  584, 2384, 2383,  576,  575, 2303, 2302
1706,  584,  583, 2385, 2384,  575,  574, 2304, 2303
1707,  583,  582, 2386, 2385,  574,  573, 2305, 2304
1708,  582,  581, 2387, 2386,  573,  572, 2306, 2305
1709,  581,  580, 2388, 2387,  572,  571, 2307, 2306
1710,  580,   95,  985, 2388,  571,   96,  976, 2307
1711,  904, 2380, 2389,  905,  895, 2299, 2308,  896
1712, 2380, 2381, 2390, 2389, 2299, 2300, 2309, 2308
1713, 2381, 2382, 2391, 2390, 2300, 2301, 2310, 2309
1714, 2382, 2383, 2392, 2391, 2301, 2302, 2311, 2310
1715, 2383, 2384, 2393, 2392, 2302, 2303, 2312, 2311
1716, 2384, 2385, 2394, 2393, 2303, 2304, 2313, 2312
1717, 2385, 2386, 2395, 2394, 2304, 2305, 2314, 2313
1718, 2386, 2387, 2396, 2395, 2305, 2306, 2315, 2314
1719, 2387, 2388, 2397, 2396, 2306, 2307, 2316, 2315
1720, 2388,  985,  986, 2397, 2307,  976,  977, 2316
1721,  905, 2389, 2398,  906,  896, 2308, 2317,  897
1722, 2389, 2390, 2399, 2398, 2308, 2309, 2318, 2317
1723, 2390, 2391, 2400, 2399, 2309, 2310, 2319, 2318
1724, 2391, 2392, 2401, 2400, 2310, 2311, 2320, 2319
1725, 2392, 2393, 2402, 2401, 2311, 2312, 2321, 2320
1726, 2393, 2394, 2403, 2402, 2312, 2313, 2322, 2321
1727, 2394, 2395, 2404, 2403, 2313, 2314, 2323, 2322
1728, 2395, 2396, 2405, 2404, 2314, 2315, 2324, 2323
1729, 2396, 2397, 2406, 2405, 2315, 2316, 2325, 2324
1730, 2397,  986,  987, 2406, 2316,  977,  978, 2325
1731,  906, 2398, 2407,  907,  897, 2317, 2326,  898
1732, 2398, 2399, 2408, 2407, 2317, 2318, 2327, 2326
1733, 2399, 2400, 2409, 2408, 2318, 2319, 2328, 2327
1734, 2400, 2401, 2410, 2409, 2319, 2320, 2329, 2328
1735, 2401, 2402, 2411, 2410, 2320, 2321, 2330, 2329
1736, 2402, 2403, 2412, 2411, 2321, 2322, 2331, 2330
1737, 2403, 2404, 2413, 2412, 2322, 2323, 2332, 2331
1738, 2404, 2405, 2414, 2413, 2323, 2324, 2333, 2332
1739, 2405, 2406, 2415, 2414, 2324, 2325, 2334, 2333
1740, 2406,  987,  988, 2415, 2325,  978,  979, 2334
1741,  907, 2407, 2416,  908,  898, 2326, 2335,  899
1742, 2407, 2408, 2417, 2416, 2326, 2327, 2336, 2335
1743, 2408, 2409, 2418, 2417, 2327, 2328, 2337, 2336
1744, 2409, 2410, 2419, 2418, 2328, 2329, 2338, 2337
1745, 2410, 2411, 2420, 2419, 2329, 2330, 2339, 2338
1746, 2411, 2412, 2421, 2420, 2330, 2331, 2340, 2339
1747, 2412, 2413, 2422, 2421, 2331, 2332, 2341, 2340
1748, 2413, 2414, 2423, 2422, 2332, 2333, 2342, 2341
1749, 2414, 2415, 2424, 2423, 2333, 2334, 2343, 2342
1750, 2415,  988,  989, 2424, 2334,  979,  980, 2343
1751,  908, 2416, 2425,  909,  899, 2335, 2344,  900
1752, 2416, 2417, 2426, 2425, 2335, 2336, 2345, 2344
1753, 2417, 2418, 2427, 2426, 2336, 2337, 2346, 2345
1754, 2418, 2419, 2428, 2427, 2337, 2338, 2347, 2346
1755, 2419, 2420, 2429, 2428, 2338, 2339, 2348, 2347
1756, 2420, 2421, 2430, 2429, 2339, 2340, 2349, 2348
1757, 2421, 2422, 2431, 2430, 2340, 2341, 2350, 2349
1758, 2422, 2423, 2432, 2431, 2341, 2342, 2351, 2350
1759, 2423, 2424, 2433, 2432, 2342, 2343, 2352, 2351
1760, 2424,  989,  990, 2433, 2343,  980,  981, 2352
1761,  909, 2425, 2434,  910,  900, 2344, 2353,  901
1762, 2425, 2426, 2435, 2434, 2344, 2345, 2354, 2353
1763, 2426, 2427, 2436, 2435, 2345, 2346, 2355, 2354
1764, 2427, 2428, 2437, 2436, 2346, 2347, 2356, 2355
1765, 2428, 2429, 2438, 2437, 2347, 2348, 2357, 2356
1766, 2429, 2430, 2439, 2438, 2348, 2349, 2358, 2357
1767, 2430, 2431, 2440, 2439, 2349, 2350, 2359, 2358
1768, 2431, 2432, 2441, 2440, 2350, 2351, 2360, 2359
1769, 2432, 2433, 2442, 2441, 2351, 2352, 2361, 2360
1770, 2433,  990,  991, 2442, 2352,  981,  982, 2361
1771,  910, 2434, 2443,  911,  901, 2353, 2362,  902
1772, 2434, 2435, 2444, 2443, 2353, 2354, 2363, 2362
1773, 2435, 2436, 2445, 2444, 2354, 2355, 2364, 2363
1774, 2436, 2437, 2446, 2445, 2355, 2356, 2365, 2364
1775, 2437, 2438, 2447, 2446, 2356, 2357, 2366, 2365
1776, 2438, 2439, 2448, 2447, 2357, 2358, 2367, 2366
1777, 2439, 2440, 2449, 2448, 2358, 2359, 2368, 2367
1778, 2440, 2441, 2450, 2449, 2359, 2360, 2369, 2368
1779, 2441, 2442, 2451, 2450, 2360, 2361, 2370, 2369
1780, 2442,  991,  992, 2451, 2361,  982,  983, 2370
1781,  911, 2443, 2452,  912,  902, 2362, 2371,  903
1782, 2443, 2444, 2453, 2452, 2362, 2363, 2372, 2371
1783, 2444, 2445, 2454, 2453, 2363, 2364, 2373, 2372
1784, 2445, 2446, 2455, 2454, 2364, 2365, 2374, 2373
1785, 2446, 2447, 2456, 2455, 2365, 2366, 2375, 2374
1786, 2447, 2448, 2457, 2456, 2366, 2367, 2376, 2375
1787, 2448, 2449, 2458, 2457, 2367, 2368, 2377, 2376
1788, 2449, 2450, 2459, 2458, 2368, 2369, 2378, 2377
1789, 2450, 2451, 2460, 2459, 2369, 2370, 2379, 2378
1790, 2451,  992,  993, 2460, 2370,  983,  984, 2379
1791,  912, 2452, 1066,  182,  903, 2371, 1057,  181
1792, 2452, 2453, 1067, 1066, 2371, 2372, 1058, 1057
1793, 2453, 2454, 1068, 1067, 2372, 2373, 1059, 1058
1794, 2454, 2455, 1069, 1068, 2373, 2374, 1060, 1059
1795, 2455, 2456, 1070, 1069, 2374, 2375, 1061, 1060
1796, 2456, 2457, 1071, 1070, 2375, 2376, 1062, 1061
1797, 2457, 2458, 1072, 1071, 2376, 2377, 1063, 1062
1798, 2458, 2459, 1073, 1072, 2377, 2378, 1064, 1063
1799, 2459, 2460, 1074, 1073, 2378, 2379, 1065, 1064
1800, 2460,  993,  185, 1074, 2379,  984,  186, 1065
1801,  120,  597, 2461,  913,  119,  588, 2380,  904
1802,  597,  596, 2462, 2461,  588,  587, 2381, 2380
1803,  596,  595, 2463, 2462,  587,  586, 2382, 2381
1804,  595,  594, 2464, 2463,  586,  585, 2383, 2382
1805,  594,  593, 2465, 2464,  585,  584, 2384, 2383
1806,  593,  592, 2466, 2465,  584,  583, 2385, 2384
1807,  592,  591, 2467, 2466,  583,  582, 2386, 2385
1808,  591,  590, 2468, 2467,  582,  581, 2387, 2386
1809,  590,  589, 2469, 2468,  581,  580, 2388, 2387
1810,  589,   94,  994, 2469,  580,   95,  985, 2388
1811,  913, 2461, 2470,  914,  904, 2380, 2389,  905
1812, 2461, 2462, 2471, 2470, 2380, 2381, 2390, 2389
1813, 2462, 2463, 2472, 2471, 2381, 2382, 2391, 2390
1814, 2463, 2464, 2473, 2472, 2382, 2383, 2392, 2391
1815, 2464, 2465, 2474, 2473, 2383, 2384, 2393, 2392
1816, 2465, 2466, 2475, 2474, 2384, 2385, 2394, 2393
1817, 2466, 2467, 2476, 2475, 2385, 2386, 2395, 2394
1818, 2467, 2468, 2477, 2476, 2386, 2387, 2396, 2395
1819, 2468, 2469, 2478, 2477, 2387, 2388, 2397, 2396
1820, 2469,  994,  995, 2478, 2388,  985,  986, 2397
1821,  914, 2470, 2479,  915,  905, 2389, 2398,  906
1822, 2470, 2471, 2480, 2479, 2389, 2390, 2399, 2398
1823, 2471, 2472, 2481, 2480, 2390, 2391, 2400, 2399
1824, 2472, 2473, 2482, 2481, 2391, 2392, 2401, 2400
1825, 2473, 2474, 2483, 2482, 2392, 2393, 2402, 2401
1826, 2474, 2475, 2484, 2483, 2393, 2394, 2403, 2402
1827, 2475, 2476, 2485, 2484, 2394, 2395, 2404, 2403
1828, 2476, 2477, 2486, 2485, 2395, 2396, 2405, 2404
1829, 2477, 2478, 2487, 2486, 2396, 2397, 2406, 2405
1830, 2478,  995,  996, 2487, 2397,  986,  987, 2406
1831,  915, 2479, 2488,  916,  906, 2398, 2407,  907
1832, 2479, 2480, 2489, 2488, 2398, 2399, 2408, 2407
1833, 2480, 2481, 2490, 2489, 2399, 2400, 2409, 2408
1834, 2481, 2482, 2491, 2490, 2400, 2401, 2410, 2409
1835, 2482, 2483, 2492, 2491, 2401, 2402, 2411, 2410
1836, 2483, 2484, 2493, 2492, 2402, 2403, 2412, 2411
1837, 2484, 2485, 2494, 2493, 2403, 2404, 2413, 2412
1838, 2485, 2486, 2495, 2494, 2404, 2405, 2414, 2413
1839, 2486, 2487, 2496, 2495, 2405, 2406, 2415, 2414
1840, 2487,  996,  997, 2496, 2406,  987,  988, 2415
1841,  916, 2488, 2497,  917,  907, 2407, 2416,  908
1842, 2488, 2489, 2498, 2497, 2407, 2408, 2417, 2416
1843, 2489, 2490, 2499, 2498, 2408, 2409, 2418, 2417
1844, 2490, 2491, 2500, 2499, 2409, 2410, 2419, 2418
1845, 2491, 2492, 2501, 2500, 2410, 2411, 2420, 2419
1846, 2492, 2493, 2502, 2501, 2411, 2412, 2421, 2420
1847, 2493, 2494, 2503, 2502, 2412, 2413, 2422, 2421
1848, 2494, 2495, 2504, 2503, 2413, 2414, 2423, 2422
1849, 2495, 2496, 2505, 2504, 2414, 2415, 2424, 2423
1850, 2496,  997,  998, 2505, 2415,  988,  989, 2424
1851,  917, 2497, 2506,  918,  908, 2416, 2425,  909
1852, 2497, 2498, 2507, 2506, 2416, 2417, 2426, 2425
1853, 2498, 2499, 2508, 2507, 2417, 2418, 2427, 2426
1854, 2499, 2500, 2509, 2508, 2418, 2419, 2428, 2427
1855, 2500, 2501, 2510, 2509, 2419, 2420, 2429, 2428
1856, 2501, 2502, 2511, 2510, 2420, 2421, 2430, 2429
1857, 2502, 2503, 2512, 2511, 2421, 2422, 2431, 2430
1858, 2503, 2504, 2513, 2512, 2422, 2423, 2432, 2431
1859, 2504, 2505, 2514, 2513, 2423, 2424, 2433, 2432
1860, 2505,  998,  999, 2514, 2424,  989,  990, 2433
1861,  918, 2506, 2515,  919,  909, 2425, 2434,  910
1862, 2506, 2507, 2516, 2515, 2425, 2426, 2435, 2434
1863, 2507, 2508, 2517, 2516, 2426, 2427, 2436, 2435
1864, 2508, 2509, 2518, 2517, 2427, 2428, 2437, 2436
1865, 2509, 2510, 2519, 2518, 2428, 2429, 2438, 2437
1866, 2510, 2511, 2520, 2519, 2429, 2430, 2439, 2438
1867, 2511, 2512, 2521, 2520, 2430, 2431, 2440, 2439
1868, 2512, 2513, 2522, 2521, 2431, 2432, 2441, 2440
1869, 2513, 2514, 2523, 2522, 2432, 2433, 2442, 2441
1870, 2514,  999, 1000, 2523, 2433,  990,  991, 2442
1871,  919, 2515, 2524,  920,  910, 2434, 2443,  911
1872, 2515, 2516, 2525, 2524, 2434, 2435, 2444, 2443
1873, 2516, 2517, 2526, 2525, 2435, 2436, 2445, 2444
1874, 2517, 2518, 2527, 2526, 2436, 2437, 2446, 2445
1875, 2518, 2519, 2528, 2527, 2437, 2438, 2447, 2446
1876, 2519, 2520, 2529, 2528, 2438, 2439, 2448, 2447
1877, 2520, 2521, 2530, 2529, 2439, 2440, 2449, 2448
1878, 2521, 2522, 2531, 2530, 2440, 2441, 2450, 2449
1879, 2522, 2523, 2532, 2531, 2441, 2442, 2451, 2450
1880, 2523, 1000, 1001, 2532, 2442,  991,  992, 2451
1881,  920, 2524, 2533,  921,  911, 2443, 2452,  912
1882, 2524, 2525, 2534, 2533, 2443, 2444, 2453, 2452
1883, 2525, 2526, 2535, 2534, 2444, 2445, 2454, 2453
1884, 2526, 2527, 2536, 2535, 2445, 2446, 2455, 2454
1885, 2527, 2528, 2537, 2536, 2446, 2447, 2456, 2455
1886, 2528, 2529, 2538, 2537, 2447, 2448, 2457, 2456
1887, 2529, 2530, 2539, 2538, 2448, 2449, 2458, 2457
1888, 2530, 2531, 2540, 2539, 2449, 2450, 2459, 2458
1889, 2531, 2532, 2541, 2540, 2450, 2451, 2460, 2459
1890, 2532, 1001, 1002, 2541, 2451,  992,  993, 2460
1891,  921, 2533, 1075,  183,  912, 2452, 1066,  182
1892, 2533, 2534, 1076, 1075, 2452, 2453, 1067, 1066
1893, 2534, 2535, 1077, 1076, 2453, 2454, 1068, 1067
1894, 2535, 2536, 1078, 1077, 2454, 2455, 1069, 1068
1895, 2536, 2537, 1079, 1078, 2455, 2456, 1070, 1069
1896, 2537, 2538, 1080, 1079, 2456, 2457, 1071, 1070
1897, 2538, 2539, 1081, 1080, 2457, 2458, 1072, 1071
1898, 2539, 2540, 1082, 1081, 2458, 2459, 1073, 1072
1899, 2540, 2541, 1083, 1082, 2459, 2460, 1074, 1073
1900, 2541, 1002,  184, 1083, 2460,  993,  185, 1074
1901,    5,   49,  760,  166,  120,  597, 2461,  913
1902,   49,   50,  761,  760,  597,  596, 2462, 2461
1903,   50,   51,  762,  761,  596,  595, 2463, 2462
1904,   51,   52,  763,  762,  595,  594, 2464, 2463
1905,   52,   53,  764,  763,  594,  593, 2465, 2464
1906,   53,   54,  765,  764,  593,  592, 2466, 2465
1907,   54,   55,  766,  765,  592,  591, 2467, 2466
1908,   55,   56,  767,  766,  591,  590, 2468, 2467
1909,   56,   57,  768,  767,  590,  589, 2469, 2468
1910,   57,    8,  156,  768,  589,   94,  994, 2469
1911,  166,  760,  769,  167,  913, 2461, 2470,  914
1912,  760,  761,  770,  769, 2461, 2462, 2471, 2470
1913,  761,  762,  771,  770, 2462, 2463, 2472, 2471
1914,  762,  763,  772,  771, 2463, 2464, 2473, 2472
1915,  763,  764,  773,  772, 2464, 2465, 2474, 2473
1916,  764,  765,  774,  773, 2465, 2466, 2475, 2474
1917,  765,  766,  775,  774, 2466, 2467, 2476, 2475
1918,  766,  767,  776,  775, 2467, 2468, 2477, 2476
1919,  767,  768,  777,  776, 2468, 2469, 2478, 2477
1920,  768,  156,  155,  777, 2469,  994,  995, 2478
1921,  167,  769,  778,  168,  914, 2470, 2479,  915
1922,  769,  770,  779,  778, 2470, 2471, 2480, 2479
1923,  770,  771,  780,  779, 2471, 2472, 2481, 2480
1924,  771,  772,  781,  780, 2472, 2473, 2482, 2481
1925,  772,  773,  782,  781, 2473, 2474, 2483, 2482
1926,  773,  774,  783,  782, 2474, 2475, 2484, 2483
1927,  774,  775,  784,  783, 2475, 2476, 2485, 2484
1928,  775,  776,  785,  784, 2476, 2477, 2486, 2485
1929,  776,  777,  786,  785, 2477, 2478, 2487, 2486
1930,  777,  155,  154,  786, 2478,  995,  996, 2487
1931,  168,  778,  787,  169,  915, 2479, 2488,  916
1932,  778,  779,  788,  787, 2479, 2480, 2489, 2488
1933,  779,  780,  789,  788, 2480, 2481, 2490, 2489
1934,  780,  781,  790,  789, 2481, 2482, 2491, 2490
1935,  781,  782,  791,  790, 2482, 2483, 2492, 2491
1936,  782,  783,  792,  791, 2483, 2484, 2493, 2492
1937,  783,  784,  793,  792, 2484, 2485, 2494, 2493
1938,  784,  785,  794,  793, 2485, 2486, 2495, 2494
1939,  785,  786,  795,  794, 2486, 2487, 2496, 2495
1940,  786,  154,  153,  795, 2487,  996,  997, 2496
1941,  169,  787,  796,  170,  916, 2488, 2497,  917
1942,  787,  788,  797,  796, 2488, 2489, 2498, 2497
1943,  788,  789,  798,  797, 2489, 2490, 2499, 2498
1944,  789,  790,  799,  798, 2490, 2491, 2500, 2499
1945,  790,  791,  800,  799, 2491, 2492, 2501, 2500
1946,  791,  792,  801,  800, 2492, 2493, 2502, 2501
1947,  792,  793,  802,  801, 2493, 2494, 2503, 2502
1948,  793,  794,  803,  802, 2494, 2495, 2504, 2503
1949,  794,  795,  804,  803, 2495, 2496, 2505, 2504
1950,  795,  153,  152,  804, 2496,  997,  998, 2505
1951,  170,  796,  805,  171,  917, 2497, 2506,  918
1952,  796,  797,  806,  805, 2497, 2498, 2507, 2506
1953,  797,  798,  807,  806, 2498, 2499, 2508, 2507
1954,  798,  799,  808,  807, 2499, 2500, 2509, 2508
1955,  799,  800,  809,  808, 2500, 2501, 2510, 2509
1956,  800,  801,  810,  809, 2501, 2502, 2511, 2510
1957,  801,  802,  811,  810, 2502, 2503, 2512, 2511
1958,  802,  803,  812,  811, 2503, 2504, 2513, 2512
1959,  803,  804,  813,  812, 2504, 2505, 2514, 2513
1960,  804,  152,  151,  813, 2505,  998,  999, 2514
1961,  171,  805,  814,  172,  918, 2506, 2515,  919
1962,  805,  806,  815,  814, 2506, 2507, 2516, 2515
1963,  806,  807,  816,  815, 2507, 2508, 2517, 2516
1964,  807,  808,  817,  816, 2508, 2509, 2518, 2517
1965,  808,  809,  818,  817, 2509, 2510, 2519, 2518
1966,  809,  810,  819,  818, 2510, 2511, 2520, 2519
1967,  810,  811,  820,  819, 2511, 2512, 2521, 2520
1968,  811,  812,  821,  820, 2512, 2513, 2522, 2521
1969,  812,  813,  822,  821, 2513, 2514, 2523, 2522
1970,  813,  151,  150,  822, 2514,  999, 1000, 2523
1971,  172,  814,  823,  173,  919, 2515, 2524,  920
1972,  814,  815,  824,  823, 2515, 2516, 2525, 2524
1973,  815,  816,  825,  824, 2516, 2517, 2526, 2525
1974,  816,  817,  826,  825, 2517, 2518, 2527, 2526
1975,  817,  818,  827,  826, 2518, 2519, 2528, 2527
1976,  818,  819,  828,  827, 2519, 2520, 2529, 2528
1977,  819,  820,  829,  828, 2520, 2521, 2530, 2529
1978,  820,  821,  830,  829, 2521, 2522, 2531, 2530
1979,  821,  822,  831,  830, 2522, 2523, 2532, 2531
1980,  822,  150,  149,  831, 2523, 1000, 1001, 2532
1981,  173,  823,  832,  174,  920, 2524, 2533,  921
1982,  823,  824,  833,  832, 2524, 2525, 2534, 2533
1983,  824,  825,  834,  833, 2525, 2526, 2535, 2534
1984,  825,  826,  835,  834, 2526, 2527, 2536, 2535
1985,  826,  827,  836,  835, 2527, 2528, 2537, 2536
1986,  827,  828,  837,  836, 2528, 2529, 2538, 2537
1987,  828,  829,  838,  837, 2529, 2530, 2539, 2538
1988,  829,  830,  839,  838, 2530, 2531, 2540, 2539
1989,  830,  831,  840,  839, 2531, 2532, 2541, 2540
1990,  831,  149,  148,  840, 2532, 1001, 1002, 2541
1991,  174,  832,  157,   12,  921, 2533, 1075,  183
1992,  832,  833,  158,  157, 2533, 2534, 1076, 1075
1993,  833,  834,  159,  158, 2534, 2535, 1077, 1076
1994,  834,  835,  160,  159, 2535, 2536, 1078, 1077
1995,  835,  836,  161,  160, 2536, 2537, 1079, 1078
1996,  836,  837,  162,  161, 2537, 2538, 1080, 1079
1997,  837,  838,  163,  162, 2538, 2539, 1081, 1080
1998,  838,  839,  164,  163, 2539, 2540, 1082, 1081
1999,  839,  840,  165,  164, 2540, 2541, 1083, 1082
2000,  840,  148,   11,  165, 2541, 1002,  184, 1083
*Nset, nset=ferrite
    1,    2,    3,    4,    5,    6,    7,    8,   13,   14,   15,   16,   17,   18,   19,   20
   21,   22,   23,   24,   25,   26,   27,   28,   29,   30,   31,   32,   33,   34,   35,   36
   37,   38,   39,   40,   41,   42,   43,   44,   45,   46,   47,   48,   49,   50,   51,   52
   53,   54,   55,   56,   57,   58,   59,   60,   61,   62,   63,   64,   65,   66,   67,   68
   69,   70,   71,   72,   73,   74,   75,   76,   77,   78,   79,   80,   81,   82,   83,   84
   85,   86,   87,   88,   89,   90,   91,   92,   93,   94,   95,   96,   97,   98,   99,  100
  101,  102,  103,  104,  105,  106,  107,  108,  109,  110,  111,  112,  113,  114,  115,  116
  117,  118,  119,  120,  193,  194,  195,  196,  197,  198,  199,  200,  201,  202,  203,  204
  205,  206,  207,  208,  209,  210,  211,  212,  213,  214,  215,  216,  217,  218,  219,  220
  221,  222,  223,  224,  225,  226,  227,  228,  229,  230,  231,  232,  233,  234,  235,  236
  237,  238,  239,  240,  241,  242,  243,  244,  245,  246,  247,  248,  249,  250,  251,  252
  253,  254,  255,  256,  257,  258,  259,  260,  261,  262,  263,  264,  265,  266,  267,  268
  269,  270,  271,  272,  273,  274,  275,  276,  277,  278,  279,  280,  281,  282,  283,  284
  285,  286,  287,  288,  289,  290,  291,  292,  293,  294,  295,  296,  297,  298,  299,  300
  301,  302,  303,  304,  305,  306,  307,  308,  309,  310,  311,  312,  313,  314,  315,  316
  317,  318,  319,  320,  321,  322,  323,  324,  325,  326,  327,  328,  329,  330,  331,  332
  333,  334,  335,  336,  337,  338,  339,  340,  341,  342,  343,  344,  345,  346,  347,  348
  349,  350,  351,  352,  353,  354,  355,  356,  357,  358,  359,  360,  361,  362,  363,  364
  365,  366,  367,  368,  369,  370,  371,  372,  373,  374,  375,  376,  377,  378,  379,  380
  381,  382,  383,  384,  385,  386,  387,  388,  389,  390,  391,  392,  393,  394,  395,  396
  397,  398,  399,  400,  401,  402,  403,  404,  405,  406,  407,  408,  409,  410,  411,  412
  413,  414,  415,  416,  417,  418,  419,  420,  421,  422,  423,  424,  425,  426,  427,  428
  429,  430,  431,  432,  433,  434,  435,  436,  437,  438,  439,  440,  441,  442,  443,  444
  445,  446,  447,  448,  449,  450,  451,  452,  453,  454,  455,  456,  457,  458,  459,  460
  461,  462,  463,  464,  465,  466,  467,  468,  469,  470,  471,  472,  473,  474,  475,  476
  477,  478,  479,  480,  481,  482,  483,  484,  485,  486,  487,  488,  489,  490,  491,  492
  493,  494,  495,  496,  497,  498,  499,  500,  501,  502,  503,  504,  505,  506,  507,  508
  509,  510,  511,  512,  513,  514,  515,  516,  517,  518,  519,  520,  521,  522,  523,  524
  525,  526,  527,  528,  529,  530,  531,  532,  533,  534,  535,  536,  537,  538,  539,  540
  541,  542,  543,  544,  545,  546,  547,  548,  549,  550,  551,  552,  553,  554,  555,  556
  557,  558,  559,  560,  561,  562,  563,  564,  565,  566,  567,  568,  569,  570,  571,  572
  573,  574,  575,  576,  577,  578,  579,  580,  581,  582,  583,  584,  585,  586,  587,  588
  589,  590,  591,  592,  593,  594,  595,  596,  597,  598,  599,  600,  601,  602,  603,  604
  605,  606,  607,  608,  609,  610,  611,  612,  613,  614,  615,  616,  617,  618,  619,  620
  621,  622,  623,  624,  625,  626,  627,  628,  629,  630,  631,  632,  633,  634,  635,  636
  637,  638,  639,  640,  641,  642,  643,  644,  645,  646,  647,  648,  649,  650,  651,  652
  653,  654,  655,  656,  657,  658,  659,  660,  661,  662,  663,  664,  665,  666,  667,  668
  669,  670,  671,  672,  673,  674,  675,  676,  677,  678, 1084, 1085, 1086, 1087, 1088, 1089
 1090, 1091, 1092, 1093, 1094, 1095, 1096, 1097, 1098, 1099, 1100, 1101, 1102, 1103, 1104, 1105
 1106, 1107, 1108, 1109, 1110, 1111, 1112, 1113, 1114, 1115, 1116, 1117, 1118, 1119, 1120, 1121
 1122, 1123, 1124, 1125, 1126, 1127, 1128, 1129, 1130, 1131, 1132, 1133, 1134, 1135, 1136, 1137
 1138, 1139, 1140, 1141, 1142, 1143, 1144, 1145, 1146, 1147, 1148, 1149, 1150, 1151, 1152, 1153
 1154, 1155, 1156, 1157, 1158, 1159, 1160, 1161, 1162, 1163, 1164, 1165, 1166, 1167, 1168, 1169
 1170, 1171, 1172, 1173, 1174, 1175, 1176, 1177, 1178, 1179, 1180, 1181, 1182, 1183, 1184, 1185
 1186, 1187, 1188, 1189, 1190, 1191, 1192, 1193, 1194, 1195, 1196, 1197, 1198, 1199, 1200, 1201
 1202, 1203, 1204, 1205, 1206, 1207, 1208, 1209, 1210, 1211, 1212, 1213, 1214, 1215, 1216, 1217
 1218, 1219, 1220, 1221, 1222, 1223, 1224, 1225, 1226, 1227, 1228, 1229, 1230, 1231, 1232, 1233
 1234, 1235, 1236, 1237, 1238, 1239, 1240, 1241, 1242, 1243, 1244, 1245, 1246, 1247, 1248, 1249
 1250, 1251, 1252, 1253, 1254, 1255, 1256, 1257, 1258, 1259, 1260, 1261, 1262, 1263, 1264, 1265
 1266, 1267, 1268, 1269, 1270, 1271, 1272, 1273, 1274, 1275, 1276, 1277, 1278, 1279, 1280, 1281
 1282, 1283, 1284, 1285, 1286, 1287, 1288, 1289, 1290, 1291, 1292, 1293, 1294, 1295, 1296, 1297
 1298, 1299, 1300, 1301, 1302, 1303, 1304, 1305, 1306, 1307, 1308, 1309, 1310, 1311, 1312, 1313
 1314, 1315, 1316, 1317, 1318, 1319, 1320, 1321, 1322, 1323, 1324, 1325, 1326, 1327, 1328, 1329
 1330, 1331, 1332, 1333, 1334, 1335, 1336, 1337, 1338, 1339, 1340, 1341, 1342, 1343, 1344, 1345
 1346, 1347, 1348, 1349, 1350, 1351, 1352, 1353, 1354, 1355, 1356, 1357, 1358, 1359, 1360, 1361
 1362, 1363, 1364, 1365, 1366, 1367, 1368, 1369, 1370, 1371, 1372, 1373, 1374, 1375, 1376, 1377
 1378, 1379, 1380, 1381, 1382, 1383, 1384, 1385, 1386, 1387, 1388, 1389, 1390, 1391, 1392, 1393
 1394, 1395, 1396, 1397, 1398, 1399, 1400, 1401, 1402, 1403, 1404, 1405, 1406, 1407, 1408, 1409
 1410, 1411, 1412, 1413, 1414, 1415, 1416, 1417, 1418, 1419, 1420, 1421, 1422, 1423, 1424, 1425
 1426, 1427, 1428, 1429, 1430, 1431, 1432, 1433, 1434, 1435, 1436, 1437, 1438, 1439, 1440, 1441
 1442, 1443, 1444, 1445, 1446, 1447, 1448, 1449, 1450, 1451, 1452, 1453, 1454, 1455, 1456, 1457
 1458, 1459, 1460, 1461, 1462, 1463, 1464, 1465, 1466, 1467, 1468, 1469, 1470, 1471, 1472, 1473
 1474, 1475, 1476, 1477, 1478, 1479, 1480, 1481, 1482, 1483, 1484, 1485, 1486, 1487, 1488, 1489
 1490, 1491, 1492, 1493, 1494, 1495, 1496, 1497, 1498, 1499, 1500, 1501, 1502, 1503, 1504, 1505
 1506, 1507, 1508, 1509, 1510, 1511, 1512, 1513, 1514, 1515, 1516, 1517, 1518, 1519, 1520, 1521
 1522, 1523, 1524, 1525, 1526, 1527, 1528, 1529, 1530, 1531, 1532, 1533, 1534, 1535, 1536, 1537
 1538, 1539, 1540, 1541, 1542, 1543, 1544, 1545, 1546, 1547, 1548, 1549, 1550, 1551, 1552, 1553
 1554, 1555, 1556, 1557, 1558, 1559, 1560, 1561, 1562, 1563, 1564, 1565, 1566, 1567, 1568, 1569
 1570, 1571, 1572, 1573, 1574, 1575, 1576, 1577, 1578, 1579, 1580, 1581, 1582, 1583, 1584, 1585
 1586, 1587, 1588, 1589, 1590, 1591, 1592, 1593, 1594, 1595, 1596, 1597, 1598, 1599, 1600, 1601
 1602, 1603, 1604, 1605, 1606, 1607, 1608, 1609, 1610, 1611, 1612, 1613, 1614, 1615, 1616, 1617
 1618, 1619, 1620, 1621, 1622, 1623, 1624, 1625, 1626, 1627, 1628, 1629, 1630, 1631, 1632, 1633
 1634, 1635, 1636, 1637, 1638, 1639, 1640, 1641, 1642, 1643, 1644, 1645, 1646, 1647, 1648, 1649
 1650, 1651, 1652, 1653, 1654, 1655, 1656, 1657, 1658, 1659, 1660, 1661, 1662, 1663, 1664, 1665
 1666, 1667, 1668, 1669, 1670, 1671, 1672, 1673, 1674, 1675, 1676, 1677, 1678, 1679, 1680, 1681
 1682, 1683, 1684, 1685, 1686, 1687, 1688, 1689, 1690, 1691, 1692, 1693, 1694, 1695, 1696, 1697
 1698, 1699, 1700, 1701, 1702, 1703, 1704, 1705, 1706, 1707, 1708, 1709, 1710, 1711, 1712, 1713
 1714, 1715, 1716, 1717, 1718, 1719, 1720, 1721, 1722, 1723, 1724, 1725, 1726, 1727, 1728, 1729
 1730, 1731, 1732, 1733, 1734, 1735, 1736, 1737, 1738, 1739, 1740, 1741, 1742, 1743, 1744, 1745
 1746, 1747, 1748, 1749, 1750, 1751, 1752, 1753, 1754, 1755, 1756, 1757, 1758, 1759, 1760, 1761
 1762, 1763, 1764, 1765, 1766, 1767, 1768, 1769, 1770, 1771, 1772, 1773, 1774, 1775, 1776, 1777
 1778, 1779, 1780, 1781, 1782, 1783, 1784, 1785, 1786, 1787, 1788, 1789, 1790, 1791, 1792, 1793
 1794, 1795, 1796, 1797, 1798, 1799, 1800, 1801, 1802, 1803, 1804, 1805, 1806, 1807, 1808, 1809
 1810, 1811, 1812
*Elset, elset=ferrite, generate
    1,  1000,     1
*Nset, nset=pearlite
    1,    2,    5,    8,    9,   10,   11,   12,   13,   14,   15,   16,   17,   18,   19,   20
   21,   49,   50,   51,   52,   53,   54,   55,   56,   57,   94,   95,   96,   97,   98,   99
  100,  101,  102,  112,  113,  114,  115,  116,  117,  118,  119,  120,  121,  122,  123,  124
  125,  126,  127,  128,  129,  130,  131,  132,  133,  134,  135,  136,  137,  138,  139,  140
  141,  142,  143,  144,  145,  146,  147,  148,  149,  150,  151,  152,  153,  154,  155,  156
  157,  158,  159,  160,  161,  162,  163,  164,  165,  166,  167,  168,  169,  170,  171,  172
  173,  174,  175,  176,  177,  178,  179,  180,  181,  182,  183,  184,  185,  186,  187,  188
  189,  190,  191,  192,  517,  518,  519,  520,  521,  522,  523,  524,  525,  526,  527,  528
  529,  530,  531,  532,  533,  534,  535,  536,  537,  538,  539,  540,  541,  542,  543,  544
  545,  546,  547,  548,  549,  550,  551,  552,  553,  554,  555,  556,  557,  558,  559,  560
  561,  562,  563,  564,  565,  566,  567,  568,  569,  570,  571,  572,  573,  574,  575,  576
  577,  578,  579,  580,  581,  582,  583,  584,  585,  586,  587,  588,  589,  590,  591,  592
  593,  594,  595,  596,  597,  679,  680,  681,  682,  683,  684,  685,  686,  687,  688,  689
  690,  691,  692,  693,  694,  695,  696,  697,  698,  699,  700,  701,  702,  703,  704,  705
  706,  707,  708,  709,  710,  711,  712,  713,  714,  715,  716,  717,  718,  719,  720,  721
  722,  723,  724,  725,  726,  727,  728,  729,  730,  731,  732,  733,  734,  735,  736,  737
  738,  739,  740,  741,  742,  743,  744,  745,  746,  747,  748,  749,  750,  751,  752,  753
  754,  755,  756,  757,  758,  759,  760,  761,  762,  763,  764,  765,  766,  767,  768,  769
  770,  771,  772,  773,  774,  775,  776,  777,  778,  779,  780,  781,  782,  783,  784,  785
  786,  787,  788,  789,  790,  791,  792,  793,  794,  795,  796,  797,  798,  799,  800,  801
  802,  803,  804,  805,  806,  807,  808,  809,  810,  811,  812,  813,  814,  815,  816,  817
  818,  819,  820,  821,  822,  823,  824,  825,  826,  827,  828,  829,  830,  831,  832,  833
  834,  835,  836,  837,  838,  839,  840,  841,  842,  843,  844,  845,  846,  847,  848,  849
  850,  851,  852,  853,  854,  855,  856,  857,  858,  859,  860,  861,  862,  863,  864,  865
  866,  867,  868,  869,  870,  871,  872,  873,  874,  875,  876,  877,  878,  879,  880,  881
  882,  883,  884,  885,  886,  887,  888,  889,  890,  891,  892,  893,  894,  895,  896,  897
  898,  899,  900,  901,  902,  903,  904,  905,  906,  907,  908,  909,  910,  911,  912,  913
  914,  915,  916,  917,  918,  919,  920,  921,  922,  923,  924,  925,  926,  927,  928,  929
  930,  931,  932,  933,  934,  935,  936,  937,  938,  939,  940,  941,  942,  943,  944,  945
  946,  947,  948,  949,  950,  951,  952,  953,  954,  955,  956,  957,  958,  959,  960,  961
  962,  963,  964,  965,  966,  967,  968,  969,  970,  971,  972,  973,  974,  975,  976,  977
  978,  979,  980,  981,  982,  983,  984,  985,  986,  987,  988,  989,  990,  991,  992,  993
  994,  995,  996,  997,  998,  999, 1000, 1001, 1002, 1003, 1004, 1005, 1006, 1007, 1008, 1009
 1010, 1011, 1012, 1013, 1014, 1015, 1016, 1017, 1018, 1019, 1020, 1021, 1022, 1023, 1024, 1025
 1026, 1027, 1028, 1029, 1030, 1031, 1032, 1033, 1034, 1035, 1036, 1037, 1038, 1039, 1040, 1041
 1042, 1043, 1044, 1045, 1046, 1047, 1048, 1049, 1050, 1051, 1052, 1053, 1054, 1055, 1056, 1057
 1058, 1059, 1060, 1061, 1062, 1063, 1064, 1065, 1066, 1067, 1068, 1069, 1070, 1071, 1072, 1073
 1074, 1075, 1076, 1077, 1078, 1079, 1080, 1081, 1082, 1083, 1813, 1814, 1815, 1816, 1817, 1818
 1819, 1820, 1821, 1822, 1823, 1824, 1825, 1826, 1827, 1828, 1829, 1830, 1831, 1832, 1833, 1834
 1835, 1836, 1837, 1838, 1839, 1840, 1841, 1842, 1843, 1844, 1845, 1846, 1847, 1848, 1849, 1850
 1851, 1852, 1853, 1854, 1855, 1856, 1857, 1858, 1859, 1860, 1861, 1862, 1863, 1864, 1865, 1866
 1867, 1868, 1869, 1870, 1871, 1872, 1873, 1874, 1875, 1876, 1877, 1878, 1879, 1880, 1881, 1882
 1883, 1884, 1885, 1886, 1887, 1888, 1889, 1890, 1891, 1892, 1893, 1894, 1895, 1896, 1897, 1898
 1899, 1900, 1901, 1902, 1903, 1904, 1905, 1906, 1907, 1908, 1909, 1910, 1911, 1912, 1913, 1914
 1915, 1916, 1917, 1918, 1919, 1920, 1921, 1922, 1923, 1924, 1925, 1926, 1927, 1928, 1929, 1930
 1931, 1932, 1933, 1934, 1935, 1936, 1937, 1938, 1939, 1940, 1941, 1942, 1943, 1944, 1945, 1946
 1947, 1948, 1949, 1950, 1951, 1952, 1953, 1954, 1955, 1956, 1957, 1958, 1959, 1960, 1961, 1962
 1963, 1964, 1965, 1966, 1967, 1968, 1969, 1970, 1971, 1972, 1973, 1974, 1975, 1976, 1977, 1978
 1979, 1980, 1981, 1982, 1983, 1984, 1985, 1986, 1987, 1988, 1989, 1990, 1991, 1992, 1993, 1994
 1995, 1996, 1997, 1998, 1999, 2000, 2001, 2002, 2003, 2004, 2005, 2006, 2007, 2008, 2009, 2010
 2011, 2012, 2013, 2014, 2015, 2016, 2017, 2018, 2019, 2020, 2021, 2022, 2023, 2024, 2025, 2026
 2027, 2028, 2029, 2030, 2031, 2032, 2033, 2034, 2035, 2036, 2037, 2038, 2039, 2040, 2041, 2042
 2043, 2044, 2045, 2046, 2047, 2048, 2049, 2050, 2051, 2052, 2053, 2054, 2055, 2056, 2057, 2058
 2059, 2060, 2061, 2062, 2063, 2064, 2065, 2066, 2067, 2068, 2069, 2070, 2071, 2072, 2073, 2074
 2075, 2076, 2077, 2078, 2079, 2080, 2081, 2082, 2083, 2084, 2085, 2086, 2087, 2088, 2089, 2090
 2091, 2092, 2093, 2094, 2095, 2096, 2097, 2098, 2099, 2100, 2101, 2102, 2103, 2104, 2105, 2106
 2107, 2108, 2109, 2110, 2111, 2112, 2113, 2114, 2115, 2116, 2117, 2118, 2119, 2120, 2121, 2122
 2123, 2124, 2125, 2126, 2127, 2128, 2129, 2130, 2131, 2132, 2133, 2134, 2135, 2136, 2137, 2138
 2139, 2140, 2141, 2142, 2143, 2144, 2145, 2146, 2147, 2148, 2149, 2150, 2151, 2152, 2153, 2154
 2155, 2156, 2157, 2158, 2159, 2160, 2161, 2162, 2163, 2164, 2165, 2166, 2167, 2168, 2169, 2170
 2171, 2172, 2173, 2174, 2175, 2176, 2177, 2178, 2179, 2180, 2181, 2182, 2183, 2184, 2185, 2186
 2187, 2188, 2189, 2190, 2191, 2192, 2193, 2194, 2195, 2196, 2197, 2198, 2199, 2200, 2201, 2202
 2203, 2204, 2205, 2206, 2207, 2208, 2209, 2210, 2211, 2212, 2213, 2214, 2215, 2216, 2217, 2218
 2219, 2220, 2221, 2222, 2223, 2224, 2225, 2226, 2227, 2228, 2229, 2230, 2231, 2232, 2233, 2234
 2235, 2236, 2237, 2238, 2239, 2240, 2241, 2242, 2243, 2244, 2245, 2246, 2247, 2248, 2249, 2250
 2251, 2252, 2253, 2254, 2255, 2256, 2257, 2258, 2259, 2260, 2261, 2262, 2263, 2264, 2265, 2266
 2267, 2268, 2269, 2270, 2271, 2272, 2273, 2274, 2275, 2276, 2277, 2278, 2279, 2280, 2281, 2282
 2283, 2284, 2285, 2286, 2287, 2288, 2289, 2290, 2291, 2292, 2293, 2294, 2295, 2296, 2297, 2298
 2299, 2300, 2301, 2302, 2303, 2304, 2305, 2306, 2307, 2308, 2309, 2310, 2311, 2312, 2313, 2314
 2315, 2316, 2317, 2318, 2319, 2320, 2321, 2322, 2323, 2324, 2325, 2326, 2327, 2328, 2329, 2330
 2331, 2332, 2333, 2334, 2335, 2336, 2337, 2338, 2339, 2340, 2341, 2342, 2343, 2344, 2345, 2346
 2347, 2348, 2349, 2350, 2351, 2352, 2353, 2354, 2355, 2356, 2357, 2358, 2359, 2360, 2361, 2362
 2363, 2364, 2365, 2366, 2367, 2368, 2369, 2370, 2371, 2372, 2373, 2374, 2375, 2376, 2377, 2378
 2379, 2380, 2381, 2382, 2383, 2384, 2385, 2386, 2387, 2388, 2389, 2390, 2391, 2392, 2393, 2394
 2395, 2396, 2397, 2398, 2399, 2400, 2401, 2402, 2403, 2404, 2405, 2406, 2407, 2408, 2409, 2410
 2411, 2412, 2413, 2414, 2415, 2416, 2417, 2418, 2419, 2420, 2421, 2422, 2423, 2424, 2425, 2426
 2427, 2428, 2429, 2430, 2431, 2432, 2433, 2434, 2435, 2436, 2437, 2438, 2439, 2440, 2441, 2442
 2443, 2444, 2445, 2446, 2447, 2448, 2449, 2450, 2451, 2452, 2453, 2454, 2455, 2456, 2457, 2458
 2459, 2460, 2461, 2462, 2463, 2464, 2465, 2466, 2467, 2468, 2469, 2470, 2471, 2472, 2473, 2474
 2475, 2476, 2477, 2478, 2479, 2480, 2481, 2482, 2483, 2484, 2485, 2486, 2487, 2488, 2489, 2490
 2491, 2492, 2493, 2494, 2495, 2496, 2497, 2498, 2499, 2500, 2501, 2502, 2503, 2504, 2505, 2506
 2507, 2508, 2509, 2510, 2511, 2512, 2513, 2514, 2515, 2516, 2517, 2518, 2519, 2520, 2521, 2522
 2523, 2524, 2525, 2526, 2527, 2528, 2529, 2530, 2531, 2532, 2533, 2534, 2535, 2536, 2537, 2538
 2539, 2540, 2541
*Elset, elset=pearlite, generate
 1001,  2000,     1
*Nset, nset=disp_z
   3,   4,   6,   7,  31,  32,  33,  34,  35,  36,  37,  38,  39,  67,  68,  69
  70,  71,  72,  73,  74,  75,  85,  86,  87,  88,  89,  90,  91,  92,  93, 103
 104, 105, 106, 107, 108, 109, 110, 111, 598, 599, 600, 601, 602, 603, 604, 605
 606, 607, 608, 609, 610, 611, 612, 613, 614, 615, 616, 617, 618, 619, 620, 621
 622, 623, 624, 625, 626, 627, 628, 629, 630, 631, 632, 633, 634, 635, 636, 637
 638, 639, 640, 641, 642, 643, 644, 645, 646, 647, 648, 649, 650, 651, 652, 653
 654, 655, 656, 657, 658, 659, 660, 661, 662, 663, 664, 665, 666, 667, 668, 669
 670, 671, 672, 673, 674, 675, 676, 677, 678
*Nset, nset=fixed_face
    9,   10,   11,   12,  130,  131,  132,  133,  134,  135,  136,  137,  138,  157,  158,  159
  160,  161,  162,  163,  164,  165,  175,  176,  177,  178,  179,  180,  181,  182,  183,  184
  185,  186,  187,  188,  189,  190,  191,  192, 1003, 1004, 1005, 1006, 1007, 1008, 1009, 1010
 1011, 1012, 1013, 1014, 1015, 1016, 1017, 1018, 1019, 1020, 1021, 1022, 1023, 1024, 1025, 1026
 1027, 1028, 1029, 1030, 1031, 1032, 1033, 1034, 1035, 1036, 1037, 1038, 1039, 1040, 1041, 1042
 1043, 1044, 1045, 1046, 1047, 1048, 1049, 1050, 1051, 1052, 1053, 1054, 1055, 1056, 1057, 1058
 1059, 1060, 1061, 1062, 1063, 1064, 1065, 1066, 1067, 1068, 1069, 1070, 1071, 1072, 1073, 1074
 1075, 1076, 1077, 1078, 1079, 1080, 1081, 1082, 1083
*End Part
**  
**
** ASSEMBLY
**
*Assembly, name=Assembly
**  
*Instance, name=bicrystal-1, part=bicrystal
*End Instance
**  
*End Assembly
