*Heading
** Job name: rve_2_ele Model name: Model-1
** Generated by: Abaqus/CAE 2024
*Preprint, echo=NO, model=NO, history=NO, contact=NO
**
** PARTS
**
*Part, name=bicrystal
*Node
      1,           0.,           0.,          10.
      2,          10.,           0.,          10.
      3,          10.,           0.,          20.
      4,           0.,           0.,          20.
      5,          10.,          10.,          10.
      6,          10.,          10.,          20.
      7,           0.,          10.,          20.
      8,           0.,          10.,          10.
      9,           0.,           0.,           0.
     10,          10.,           0.,           0.
     11,           0.,          10.,           0.
     12,          10.,          10.,           0.
*Element, type=C3D8R
1, 8, 5, 6, 7, 1, 2, 3, 4
2,  5,  8, 11, 12,  2,  1,  9, 10
*Nset, nset=ferrite, generate
 1,  8,  1
*Elset, elset=ferrite
 1,
*Nset, nset=pearlite
  1,  2,  5,  8,  9, 10, 11, 12
*Elset, elset=pearlite
 2,
*Nset, nset=disp_z
 3, 4, 6, 7
*Nset, nset=fixed_face, generate
  9,  12,   1
*End Part
**  
**
** ASSEMBLY
**
*Assembly, name=Assembly
**  
*Instance, name=bicrystal-1, part=bicrystal
*End Instance
**  
*End Assembly
